<?xml version="1.0"?>
<VTKFile type="UnstructuredGrid" version="0.1" byte_order="LittleEndian">
	<UnstructuredGrid>
		<Piece NumberOfPoints="8" NumberOfCells="1">
			<Points>
				<DataArray type="Float32" NumberOfComponents="3" format="ascii">
					0.00000000e+00 0.00000000e+00 0.00000000e+00
					5.00000000e-03 0.00000000e+00 0.00000000e+00
					5.00000000e-03 5.00000000e-03 0.00000000e+00
					0.00000000e+00 5.00000000e-03 0.00000000e+00
					0.00000000e+00 0.00000000e+00 5.00000000e-03
					5.00000000e-03 0.00000000e+00 5.00000000e-03
					5.00000000e-03 5.00000000e-03 5.00000000e-03
					0.00000000e+00 5.00000000e-03 5.00000000e-03
				</DataArray>
			</Points>
			<Cells>
				<DataArray type="Int32" Name="connectivity" format="ascii">
					0	1	2	3	4	5	6	7	

				</DataArray>
				<DataArray type="Int32" Name="offsets" format="ascii">
					8
				</DataArray>
				<DataArray type="UInt8" Name="types" format="ascii">
					12
				</DataArray>
			</Cells>
			<PointData>
				<DataArray type="Float32" Name="Displacement" NumberOfComponents="3" ComponentName0="X" ComponentName1="Y" ComponentName2="Z" format="ascii">
					0.0000000000e+00 0.0000000000e+00 0.0000000000e+00 
					-3.7446781083e-04 0.0000000000e+00 0.0000000000e+00 
					-3.7446781083e-04 -3.7446781083e-04 0.0000000000e+00 
					0.0000000000e+00 -3.7446781083e-04 0.0000000000e+00 
					0.0000000000e+00 0.0000000000e+00 8.5150023609e-04 
					-3.7446781083e-04 0.0000000000e+00 8.5150023609e-04 
					-3.7446781083e-04 -3.7446781083e-04 8.5150023609e-04 
					0.0000000000e+00 -3.7446781083e-04 8.5150023609e-04 
				</DataArray>
				<DataArray type="Float32" Name="Velocity" NumberOfComponents="3" ComponentName0="X" ComponentName1="Y" ComponentName2="Z" format="ascii">
					0.0000000000e+00 0.0000000000e+00 0.0000000000e+00 
					-1.8192100797e-02 0.0000000000e+00 0.0000000000e+00 
					-1.8192100797e-02 -1.8192100797e-02 0.0000000000e+00 
					0.0000000000e+00 -1.8192100797e-02 0.0000000000e+00 
					0.0000000000e+00 0.0000000000e+00 4.6617535078e-02 
					-1.8192100797e-02 0.0000000000e+00 4.6617535078e-02 
					-1.8192100797e-02 -1.8192100797e-02 4.6617535078e-02 
					0.0000000000e+00 -1.8192100797e-02 4.6617535078e-02 
				</DataArray>
				<DataArray type="Float32" Name="Acceleration" NumberOfComponents="3" ComponentName0="X" ComponentName1="Y" ComponentName2="Z" format="ascii">
					0.0000000000e+00 0.0000000000e+00 0.0000000000e+00 
					5.4730314281e+00 0.0000000000e+00 0.0000000000e+00 
					5.4730314279e+00 5.4730314280e+00 0.0000000000e+00 
					0.0000000000e+00 5.4730314279e+00 0.0000000000e+00 
					0.0000000000e+00 0.0000000000e+00 -1.1071694560e+01 
					5.4730314280e+00 0.0000000000e+00 -1.1071694560e+01 
					5.4730314279e+00 5.4730314280e+00 -1.1071694560e+01 
					0.0000000000e+00 5.4730314279e+00 -1.1071694560e+01 
				</DataArray>
			</PointData>
			<CellData>
				<DataArray type="Float32" Name="Stress (Cauchy)" NumberOfComponents="9" ComponentName0="XX" ComponentName1="XY" ComponentName2="XZ" ComponentName3="YX" ComponentName4="YY" ComponentName5="YZ" ComponentName6="ZX" ComponentName7="ZY" ComponentName8="ZZ" format="ascii">
					-6.3190098049e+00 5.7616172449e-13 -3.2094443697e-13
					5.7616172449e-13 -6.3190098049e+00 1.2869091090e-12
					-3.2094443697e-13 1.2869091090e-12 1.8947599410e+03
				</DataArray>
				<DataArray type="Float32" Name="Strain (Logarithmic)" NumberOfComponents="9" ComponentName0="XX" ComponentName1="XY" ComponentName2="XZ" ComponentName3="YX" ComponentName4="YY" ComponentName5="YZ" ComponentName6="ZX" ComponentName7="ZY" ComponentName8="ZZ" format="ascii">
					-7.7846480160e-02 0.0000000000e+00 0.0000000000e+00
					0.0000000000e+00 -7.7846480160e-02 0.0000000000e+00
					0.0000000000e+00 0.0000000000e+00 1.5726016654e-01
				</DataArray>
			</CellData>
		</Piece>
	</UnstructuredGrid>
</VTKFile>
