<?xml version="1.0"?>
<VTKFile type="UnstructuredGrid" version="0.1" byte_order="LittleEndian">
	<UnstructuredGrid>
		<Piece NumberOfPoints="8" NumberOfCells="1">
			<Points>
				<DataArray type="Float32" NumberOfComponents="3" format="ascii">
					0.00000000e+00 0.00000000e+00 0.00000000e+00
					5.00000000e-03 0.00000000e+00 0.00000000e+00
					5.00000000e-03 5.00000000e-03 0.00000000e+00
					0.00000000e+00 5.00000000e-03 0.00000000e+00
					0.00000000e+00 0.00000000e+00 5.00000000e-03
					5.00000000e-03 0.00000000e+00 5.00000000e-03
					5.00000000e-03 5.00000000e-03 5.00000000e-03
					0.00000000e+00 5.00000000e-03 5.00000000e-03
				</DataArray>
			</Points>
			<Cells>
				<DataArray type="Int32" Name="connectivity" format="ascii">
					0	1	2	3	4	5	6	7	

				</DataArray>
				<DataArray type="Int32" Name="offsets" format="ascii">
					8
				</DataArray>
				<DataArray type="UInt8" Name="types" format="ascii">
					12
				</DataArray>
			</Cells>
			<PointData>
				<DataArray type="Float32" Name="Displacement" NumberOfComponents="3" ComponentName0="X" ComponentName1="Y" ComponentName2="Z" format="ascii">
					0.0000000000e+00 0.0000000000e+00 0.0000000000e+00 
					-3.0232014751e-05 0.0000000000e+00 0.0000000000e+00 
					-3.0232014751e-05 -3.0232014751e-05 0.0000000000e+00 
					0.0000000000e+00 -3.0232014751e-05 0.0000000000e+00 
					0.0000000000e+00 0.0000000000e+00 6.1621484046e-05 
					-3.0232014751e-05 0.0000000000e+00 6.1621484046e-05 
					-3.0232014751e-05 -3.0232014751e-05 6.1621484046e-05 
					0.0000000000e+00 -3.0232014751e-05 6.1621484046e-05 
				</DataArray>
				<DataArray type="Float32" Name="Velocity" NumberOfComponents="3" ComponentName0="X" ComponentName1="Y" ComponentName2="Z" format="ascii">
					0.0000000000e+00 0.0000000000e+00 0.0000000000e+00 
					-1.9900245396e-02 0.0000000000e+00 0.0000000000e+00 
					-1.9900245396e-02 -1.9900245396e-02 0.0000000000e+00 
					0.0000000000e+00 -1.9900245396e-02 0.0000000000e+00 
					0.0000000000e+00 0.0000000000e+00 4.0580382995e-02 
					-1.9900245396e-02 0.0000000000e+00 4.0580382995e-02 
					-1.9900245396e-02 -1.9900245396e-02 4.0580382995e-02 
					0.0000000000e+00 -1.9900245396e-02 4.0580382995e-02 
				</DataArray>
				<DataArray type="Float32" Name="Acceleration" NumberOfComponents="3" ComponentName0="X" ComponentName1="Y" ComponentName2="Z" format="ascii">
					0.0000000000e+00 0.0000000000e+00 0.0000000000e+00 
					8.4389034980e-01 0.0000000000e+00 0.0000000000e+00 
					8.4389034980e-01 8.4389034980e-01 0.0000000000e+00 
					0.0000000000e+00 8.4389034980e-01 0.0000000000e+00 
					0.0000000000e+00 0.0000000000e+00 -3.1302066094e+00 
					8.4389034980e-01 0.0000000000e+00 -3.1302066094e+00 
					8.4389034980e-01 8.4389034980e-01 -3.1302066094e+00 
					0.0000000000e+00 8.4389034980e-01 -3.1302066094e+00 
				</DataArray>
			</PointData>
			<CellData>
				<DataArray type="Float32" Name="Stress (Cauchy)" NumberOfComponents="9" ComponentName0="XX" ComponentName1="XY" ComponentName2="XZ" ComponentName3="YX" ComponentName4="YY" ComponentName5="YZ" ComponentName6="ZX" ComponentName7="ZY" ComponentName8="ZZ" format="ascii">
					-1.0483595685e+00 8.7259885419e-16 -2.5859818195e-15
					8.7259885419e-16 -1.0483595685e+00 1.7134317396e-15
					-2.5859818195e-15 1.7134317396e-15 1.4545487743e+02
				</DataArray>
				<DataArray type="Float32" Name="Strain (Logarithmic)" NumberOfComponents="9" ComponentName0="XX" ComponentName1="XY" ComponentName2="XZ" ComponentName3="YX" ComponentName4="YY" ComponentName5="YZ" ComponentName6="ZX" ComponentName7="ZY" ComponentName8="ZZ" format="ascii">
					-6.0647564638e-03 0.0000000000e+00 0.0000000000e+00
					0.0000000000e+00 -6.0647564638e-03 0.0000000000e+00
					0.0000000000e+00 0.0000000000e+00 1.2248970924e-02
				</DataArray>
			</CellData>
		</Piece>
	</UnstructuredGrid>
</VTKFile>
