<?xml version="1.0"?>
<VTKFile type="UnstructuredGrid" version="0.1" byte_order="LittleEndian">
	<UnstructuredGrid>
		<Piece NumberOfPoints="8" NumberOfCells="1">
			<Points>
				<DataArray type="Float32" NumberOfComponents="3" format="ascii">
					0.00000000e+00 0.00000000e+00 0.00000000e+00
					5.00000000e-03 0.00000000e+00 0.00000000e+00
					5.00000000e-03 5.00000000e-03 0.00000000e+00
					0.00000000e+00 5.00000000e-03 0.00000000e+00
					0.00000000e+00 0.00000000e+00 5.00000000e-03
					5.00000000e-03 0.00000000e+00 5.00000000e-03
					5.00000000e-03 5.00000000e-03 5.00000000e-03
					0.00000000e+00 5.00000000e-03 5.00000000e-03
				</DataArray>
			</Points>
			<Cells>
				<DataArray type="Int32" Name="connectivity" format="ascii">
					0	1	2	3	4	5	6	7	

				</DataArray>
				<DataArray type="Int32" Name="offsets" format="ascii">
					8
				</DataArray>
				<DataArray type="UInt8" Name="types" format="ascii">
					12
				</DataArray>
			</Cells>
			<PointData>
				<DataArray type="Float32" Name="Displacement" NumberOfComponents="3" ComponentName0="X" ComponentName1="Y" ComponentName2="Z" format="ascii">
					0.0000000000e+00 0.0000000000e+00 0.0000000000e+00 
					-1.7738743434e-06 0.0000000000e+00 0.0000000000e+00 
					-1.7738743434e-06 -1.7738743434e-06 0.0000000000e+00 
					0.0000000000e+00 -1.7738743434e-06 0.0000000000e+00 
					0.0000000000e+00 0.0000000000e+00 3.7268581826e-06 
					-1.7738743434e-06 0.0000000000e+00 3.7268581826e-06 
					-1.7738743434e-06 -1.7738743434e-06 3.7268581826e-06 
					0.0000000000e+00 -1.7738743434e-06 3.7268581826e-06 
				</DataArray>
				<DataArray type="Float32" Name="Velocity" NumberOfComponents="3" ComponentName0="X" ComponentName1="Y" ComponentName2="Z" format="ascii">
					0.0000000000e+00 0.0000000000e+00 0.0000000000e+00 
					-5.3745497649e-03 0.0000000000e+00 0.0000000000e+00 
					-5.3745497649e-03 -5.3745497649e-03 0.0000000000e+00 
					0.0000000000e+00 -5.3745497649e-03 0.0000000000e+00 
					0.0000000000e+00 0.0000000000e+00 1.1031131884e-02 
					-5.3745497649e-03 0.0000000000e+00 1.1031131884e-02 
					-5.3745497649e-03 -5.3745497649e-03 1.1031131884e-02 
					0.0000000000e+00 -5.3745497649e-03 1.1031131884e-02 
				</DataArray>
				<DataArray type="Float32" Name="Acceleration" NumberOfComponents="3" ComponentName0="X" ComponentName1="Y" ComponentName2="Z" format="ascii">
					0.0000000000e+00 0.0000000000e+00 0.0000000000e+00 
					-8.9911430448e+00 0.0000000000e+00 0.0000000000e+00 
					-8.9911430448e+00 -8.9911430448e+00 0.0000000000e+00 
					0.0000000000e+00 -8.9911430448e+00 0.0000000000e+00 
					0.0000000000e+00 0.0000000000e+00 2.1317912604e+01 
					-8.9911430448e+00 0.0000000000e+00 2.1317912604e+01 
					-8.9911430448e+00 -8.9911430448e+00 2.1317912604e+01 
					0.0000000000e+00 -8.9911430448e+00 2.1317912604e+01 
				</DataArray>
			</PointData>
			<CellData>
				<DataArray type="Float32" Name="Stress (Cauchy)" NumberOfComponents="9" ComponentName0="XX" ComponentName1="XY" ComponentName2="XZ" ComponentName3="YX" ComponentName4="YY" ComponentName5="YZ" ComponentName6="ZX" ComponentName7="ZY" ComponentName8="ZZ" format="ascii">
					1.1234543600e+01 5.4227441733e-17 5.4227430799e-17
					5.4227441733e-17 1.1234543600e+01 -3.6745500131e-37
					5.4227430799e-17 -3.6745500131e-37 2.0033688719e+01
				</DataArray>
				<DataArray type="Float32" Name="Strain (Logarithmic)" NumberOfComponents="9" ComponentName0="XX" ComponentName1="XY" ComponentName2="XZ" ComponentName3="YX" ComponentName4="YY" ComponentName5="YZ" ComponentName6="ZX" ComponentName7="ZY" ComponentName8="ZZ" format="ascii">
					-3.5483781617e-04 0.0000000000e+00 0.0000000000e+00
					0.0000000000e+00 -3.5483781617e-04 0.0000000000e+00
					0.0000000000e+00 0.0000000000e+00 7.4509398504e-04
				</DataArray>
			</CellData>
		</Piece>
	</UnstructuredGrid>
</VTKFile>
