<?xml version="1.0"?>
<VTKFile type="UnstructuredGrid" version="0.1" byte_order="LittleEndian">
	<UnstructuredGrid>
		<Piece NumberOfPoints="8" NumberOfCells="1">
			<Points>
				<DataArray type="Float32" NumberOfComponents="3" format="ascii">
					0.00000000e+00 0.00000000e+00 0.00000000e+00
					5.00000000e-03 0.00000000e+00 0.00000000e+00
					5.00000000e-03 5.00000000e-03 0.00000000e+00
					0.00000000e+00 5.00000000e-03 0.00000000e+00
					0.00000000e+00 0.00000000e+00 5.00000000e-03
					5.00000000e-03 0.00000000e+00 5.00000000e-03
					5.00000000e-03 5.00000000e-03 5.00000000e-03
					0.00000000e+00 5.00000000e-03 5.00000000e-03
				</DataArray>
			</Points>
			<Cells>
				<DataArray type="Int32" Name="connectivity" format="ascii">
					0	1	2	3	4	5	6	7	

				</DataArray>
				<DataArray type="Int32" Name="offsets" format="ascii">
					8
				</DataArray>
				<DataArray type="UInt8" Name="types" format="ascii">
					12
				</DataArray>
			</Cells>
			<PointData>
				<DataArray type="Float32" Name="Displacement" NumberOfComponents="3" ComponentName0="X" ComponentName1="Y" ComponentName2="Z" format="ascii">
					0.0000000000e+00 0.0000000000e+00 0.0000000000e+00 
					-1.9934248420e-04 0.0000000000e+00 0.0000000000e+00 
					-1.9934248420e-04 -1.9934248420e-04 0.0000000000e+00 
					0.0000000000e+00 -1.9934248420e-04 0.0000000000e+00 
					0.0000000000e+00 0.0000000000e+00 4.2840757321e-04 
					-1.9934248420e-04 0.0000000000e+00 4.2840757321e-04 
					-1.9934248420e-04 -1.9934248420e-04 4.2840757321e-04 
					0.0000000000e+00 -1.9934248420e-04 4.2840757321e-04 
				</DataArray>
				<DataArray type="Float32" Name="Velocity" NumberOfComponents="3" ComponentName0="X" ComponentName1="Y" ComponentName2="Z" format="ascii">
					0.0000000000e+00 0.0000000000e+00 0.0000000000e+00 
					-1.7205009559e-02 0.0000000000e+00 0.0000000000e+00 
					-1.7205009559e-02 -1.7205009559e-02 0.0000000000e+00 
					0.0000000000e+00 -1.7205009559e-02 0.0000000000e+00 
					0.0000000000e+00 0.0000000000e+00 3.9101727377e-02 
					-1.7205009559e-02 0.0000000000e+00 3.9101727377e-02 
					-1.7205009559e-02 -1.7205009559e-02 3.9101727377e-02 
					0.0000000000e+00 -1.7205009559e-02 3.9101727377e-02 
				</DataArray>
				<DataArray type="Float32" Name="Acceleration" NumberOfComponents="3" ComponentName0="X" ComponentName1="Y" ComponentName2="Z" format="ascii">
					0.0000000000e+00 0.0000000000e+00 0.0000000000e+00 
					-5.6277194871e+00 0.0000000000e+00 0.0000000000e+00 
					-5.6277194871e+00 -5.6277194872e+00 0.0000000000e+00 
					0.0000000000e+00 -5.6277194870e+00 0.0000000000e+00 
					0.0000000000e+00 0.0000000000e+00 1.6638538622e+01 
					-5.6277194871e+00 0.0000000000e+00 1.6638538622e+01 
					-5.6277194871e+00 -5.6277194872e+00 1.6638538622e+01 
					0.0000000000e+00 -5.6277194870e+00 1.6638538622e+01 
				</DataArray>
			</PointData>
			<CellData>
				<DataArray type="Float32" Name="Stress (Cauchy)" NumberOfComponents="9" ComponentName0="XX" ComponentName1="XY" ComponentName2="XZ" ComponentName3="YX" ComponentName4="YY" ComponentName5="YZ" ComponentName6="ZX" ComponentName7="ZY" ComponentName8="ZZ" format="ascii">
					6.7485316946e+00 1.5214961896e-12 1.3560829239e-12
					1.5214961896e-12 6.7485316946e+00 -1.2502378785e-13
					1.3560829239e-12 -1.2502378785e-13 9.9236948479e+02
				</DataArray>
				<DataArray type="Float32" Name="Strain (Logarithmic)" NumberOfComponents="9" ComponentName0="XX" ComponentName1="XY" ComponentName2="XZ" ComponentName3="YX" ComponentName4="YY" ComponentName5="YZ" ComponentName6="ZX" ComponentName7="ZY" ComponentName8="ZZ" format="ascii">
					-4.0685021444e-02 0.0000000000e+00 0.0000000000e+00
					0.0000000000e+00 -4.0685021444e-02 0.0000000000e+00
					0.0000000000e+00 0.0000000000e+00 8.2207913899e-02
				</DataArray>
			</CellData>
		</Piece>
	</UnstructuredGrid>
</VTKFile>
