<?xml version="1.0"?>
<VTKFile type="UnstructuredGrid" version="0.1" byte_order="LittleEndian">
	<UnstructuredGrid>
		<Piece NumberOfPoints="8" NumberOfCells="1">
			<Points>
				<DataArray type="Float32" NumberOfComponents="3" format="ascii">
					0.00000000e+00 0.00000000e+00 0.00000000e+00
					5.00000000e-03 0.00000000e+00 0.00000000e+00
					5.00000000e-03 5.00000000e-03 0.00000000e+00
					0.00000000e+00 5.00000000e-03 0.00000000e+00
					0.00000000e+00 0.00000000e+00 5.00000000e-03
					5.00000000e-03 0.00000000e+00 5.00000000e-03
					5.00000000e-03 5.00000000e-03 5.00000000e-03
					0.00000000e+00 5.00000000e-03 5.00000000e-03
				</DataArray>
			</Points>
			<Cells>
				<DataArray type="Int32" Name="connectivity" format="ascii">
					0	1	2	3	4	5	6	7	

				</DataArray>
				<DataArray type="Int32" Name="offsets" format="ascii">
					8
				</DataArray>
				<DataArray type="UInt8" Name="types" format="ascii">
					12
				</DataArray>
			</Cells>
			<PointData>
				<DataArray type="Float32" Name="Displacement" NumberOfComponents="3" ComponentName0="X" ComponentName1="Y" ComponentName2="Z" format="ascii">
					0.0000000000e+00 0.0000000000e+00 0.0000000000e+00 
					-4.8386964463e-04 0.0000000000e+00 0.0000000000e+00 
					-4.8386964463e-04 -4.8386964463e-04 0.0000000000e+00 
					0.0000000000e+00 -4.8386964463e-04 0.0000000000e+00 
					0.0000000000e+00 0.0000000000e+00 1.1416180206e-03 
					-4.8386964463e-04 0.0000000000e+00 1.1416180206e-03 
					-4.8386964463e-04 -4.8386964463e-04 1.1416180206e-03 
					0.0000000000e+00 -4.8386964463e-04 1.1416180206e-03 
				</DataArray>
				<DataArray type="Float32" Name="Velocity" NumberOfComponents="3" ComponentName0="X" ComponentName1="Y" ComponentName2="Z" format="ascii">
					0.0000000000e+00 0.0000000000e+00 0.0000000000e+00 
					-5.9284096637e-03 0.0000000000e+00 0.0000000000e+00 
					-5.9284096637e-03 -5.9284096637e-03 0.0000000000e+00 
					0.0000000000e+00 -5.9284096637e-03 0.0000000000e+00 
					0.0000000000e+00 0.0000000000e+00 1.6268479570e-02 
					-5.9284096637e-03 0.0000000000e+00 1.6268479570e-02 
					-5.9284096637e-03 -5.9284096637e-03 1.6268479570e-02 
					0.0000000000e+00 -5.9284096637e-03 1.6268479570e-02 
				</DataArray>
				<DataArray type="Float32" Name="Acceleration" NumberOfComponents="3" ComponentName0="X" ComponentName1="Y" ComponentName2="Z" format="ascii">
					0.0000000000e+00 0.0000000000e+00 0.0000000000e+00 
					3.1296702327e-01 0.0000000000e+00 0.0000000000e+00 
					3.1296702329e-01 3.1296702327e-01 0.0000000000e+00 
					0.0000000000e+00 3.1296702329e-01 0.0000000000e+00 
					0.0000000000e+00 0.0000000000e+00 -4.6383969066e+00 
					3.1296702318e-01 0.0000000000e+00 -4.6383969066e+00 
					3.1296702320e-01 3.1296702318e-01 -4.6383969066e+00 
					0.0000000000e+00 3.1296702320e-01 -4.6383969066e+00 
				</DataArray>
			</PointData>
			<CellData>
				<DataArray type="Float32" Name="Stress (Cauchy)" NumberOfComponents="9" ComponentName0="XX" ComponentName1="XY" ComponentName2="XZ" ComponentName3="YX" ComponentName4="YY" ComponentName5="YZ" ComponentName6="ZX" ComponentName7="ZY" ComponentName8="ZZ" format="ascii">
					-3.5261382021e-01 -2.0352598632e-13 1.1188377658e-12
					-2.0352598632e-13 -3.5261382021e-01 6.9452099086e-13
					1.1188377658e-12 6.9452099086e-13 2.5059329862e+03
				</DataArray>
				<DataArray type="Float32" Name="Strain (Logarithmic)" NumberOfComponents="9" ComponentName0="XX" ComponentName1="XY" ComponentName2="XZ" ComponentName3="YX" ComponentName4="YY" ComponentName5="YZ" ComponentName6="ZX" ComponentName7="ZY" ComponentName8="ZZ" format="ascii">
					-1.0178240134e-01 0.0000000000e+00 0.0000000000e+00
					0.0000000000e+00 -1.0178240134e-01 0.0000000000e+00
					0.0000000000e+00 0.0000000000e+00 2.0565031627e-01
				</DataArray>
			</CellData>
		</Piece>
	</UnstructuredGrid>
</VTKFile>
