<?xml version="1.0"?>
<VTKFile type="UnstructuredGrid" version="0.1" byte_order="LittleEndian">
	<UnstructuredGrid>
		<Piece NumberOfPoints="8" NumberOfCells="1">
			<Points>
				<DataArray type="Float32" NumberOfComponents="3" format="ascii">
					0.00000000e+00 0.00000000e+00 0.00000000e+00
					5.00000000e-03 0.00000000e+00 0.00000000e+00
					5.00000000e-03 5.00000000e-03 0.00000000e+00
					0.00000000e+00 5.00000000e-03 0.00000000e+00
					0.00000000e+00 0.00000000e+00 5.00000000e-03
					5.00000000e-03 0.00000000e+00 5.00000000e-03
					5.00000000e-03 5.00000000e-03 5.00000000e-03
					0.00000000e+00 5.00000000e-03 5.00000000e-03
				</DataArray>
			</Points>
			<Cells>
				<DataArray type="Int32" Name="connectivity" format="ascii">
					0	1	2	3	4	5	6	7	

				</DataArray>
				<DataArray type="Int32" Name="offsets" format="ascii">
					8
				</DataArray>
				<DataArray type="UInt8" Name="types" format="ascii">
					12
				</DataArray>
			</Cells>
			<PointData>
				<DataArray type="Float32" Name="Displacement" NumberOfComponents="3" ComponentName0="X" ComponentName1="Y" ComponentName2="Z" format="ascii">
					0.0000000000e+00 0.0000000000e+00 0.0000000000e+00 
					-2.1720626855e-04 0.0000000000e+00 0.0000000000e+00 
					-2.1720626855e-04 -2.1720626855e-04 0.0000000000e+00 
					0.0000000000e+00 -2.1720626855e-04 0.0000000000e+00 
					0.0000000000e+00 0.0000000000e+00 4.6932030773e-04 
					-2.1720626855e-04 0.0000000000e+00 4.6932030773e-04 
					-2.1720626855e-04 -2.1720626855e-04 4.6932030773e-04 
					0.0000000000e+00 -2.1720626855e-04 4.6932030773e-04 
				</DataArray>
				<DataArray type="Float32" Name="Velocity" NumberOfComponents="3" ComponentName0="X" ComponentName1="Y" ComponentName2="Z" format="ascii">
					0.0000000000e+00 0.0000000000e+00 0.0000000000e+00 
					-1.9818737513e-02 0.0000000000e+00 0.0000000000e+00 
					-1.9818737513e-02 -1.9818737513e-02 0.0000000000e+00 
					0.0000000000e+00 -1.9818737513e-02 0.0000000000e+00 
					0.0000000000e+00 0.0000000000e+00 4.5808751113e-02 
					-1.9818737513e-02 0.0000000000e+00 4.5808751113e-02 
					-1.9818737513e-02 -1.9818737513e-02 4.5808751113e-02 
					0.0000000000e+00 -1.9818737513e-02 4.5808751113e-02 
				</DataArray>
				<DataArray type="Float32" Name="Acceleration" NumberOfComponents="3" ComponentName0="X" ComponentName1="Y" ComponentName2="Z" format="ascii">
					0.0000000000e+00 0.0000000000e+00 0.0000000000e+00 
					2.1065930425e+00 0.0000000000e+00 0.0000000000e+00 
					2.1065930425e+00 2.1065930424e+00 0.0000000000e+00 
					0.0000000000e+00 2.1065930426e+00 0.0000000000e+00 
					0.0000000000e+00 0.0000000000e+00 -1.7745015278e+00 
					2.1065930424e+00 0.0000000000e+00 -1.7745015280e+00 
					2.1065930425e+00 2.1065930424e+00 -1.7745015279e+00 
					0.0000000000e+00 2.1065930425e+00 -1.7745015278e+00 
				</DataArray>
			</PointData>
			<CellData>
				<DataArray type="Float32" Name="Stress (Cauchy)" NumberOfComponents="9" ComponentName0="XX" ComponentName1="XY" ComponentName2="XZ" ComponentName3="YX" ComponentName4="YY" ComponentName5="YZ" ComponentName6="ZX" ComponentName7="ZY" ComponentName8="ZZ" format="ascii">
					-2.5166084903e+00 1.7245439706e-12 1.4248560325e-12
					1.7245439706e-12 -2.5166084903e+00 3.5181260314e-13
					1.4248560325e-12 3.5181260314e-13 1.0738570033e+03
				</DataArray>
				<DataArray type="Float32" Name="Strain (Logarithmic)" NumberOfComponents="9" ComponentName0="XX" ComponentName1="XY" ComponentName2="XZ" ComponentName3="YX" ComponentName4="YY" ComponentName5="YZ" ComponentName6="ZX" ComponentName7="ZY" ComponentName8="ZZ" format="ascii">
					-4.4413074016e-02 0.0000000000e+00 0.0000000000e+00
					0.0000000000e+00 -4.4413074016e-02 0.0000000000e+00
					0.0000000000e+00 0.0000000000e+00 8.9716438095e-02
				</DataArray>
			</CellData>
		</Piece>
	</UnstructuredGrid>
</VTKFile>
