<?xml version="1.0"?>
<VTKFile type="UnstructuredGrid" version="0.1" byte_order="LittleEndian">
	<UnstructuredGrid>
		<Piece NumberOfPoints="8" NumberOfCells="1">
			<Points>
				<DataArray type="Float32" NumberOfComponents="3" format="ascii">
					0.00000000e+00 0.00000000e+00 0.00000000e+00
					5.00000000e-03 0.00000000e+00 0.00000000e+00
					5.00000000e-03 5.00000000e-03 0.00000000e+00
					0.00000000e+00 5.00000000e-03 0.00000000e+00
					0.00000000e+00 0.00000000e+00 5.00000000e-03
					5.00000000e-03 0.00000000e+00 5.00000000e-03
					5.00000000e-03 5.00000000e-03 5.00000000e-03
					0.00000000e+00 5.00000000e-03 5.00000000e-03
				</DataArray>
			</Points>
			<Cells>
				<DataArray type="Int32" Name="connectivity" format="ascii">
					0	1	2	3	4	5	6	7	

				</DataArray>
				<DataArray type="Int32" Name="offsets" format="ascii">
					8
				</DataArray>
				<DataArray type="UInt8" Name="types" format="ascii">
					12
				</DataArray>
			</Cells>
			<PointData>
				<DataArray type="Float32" Name="Displacement" NumberOfComponents="3" ComponentName0="X" ComponentName1="Y" ComponentName2="Z" format="ascii">
					0.0000000000e+00 0.0000000000e+00 0.0000000000e+00 
					-5.6629798868e-05 0.0000000000e+00 0.0000000000e+00 
					-5.6629798868e-05 -5.6629798868e-05 0.0000000000e+00 
					0.0000000000e+00 -5.6629798868e-05 0.0000000000e+00 
					0.0000000000e+00 0.0000000000e+00 1.1636399678e-04 
					-5.6629798868e-05 0.0000000000e+00 1.1636399678e-04 
					-5.6629798868e-05 -5.6629798868e-05 1.1636399678e-04 
					0.0000000000e+00 -5.6629798868e-05 1.1636399678e-04 
				</DataArray>
				<DataArray type="Float32" Name="Velocity" NumberOfComponents="3" ComponentName0="X" ComponentName1="Y" ComponentName2="Z" format="ascii">
					0.0000000000e+00 0.0000000000e+00 0.0000000000e+00 
					-8.4369751182e-04 0.0000000000e+00 0.0000000000e+00 
					-8.4369751182e-04 -8.4369751182e-04 0.0000000000e+00 
					0.0000000000e+00 -8.4369751182e-04 0.0000000000e+00 
					0.0000000000e+00 0.0000000000e+00 1.7627612231e-03 
					-8.4369751182e-04 0.0000000000e+00 1.7627612231e-03 
					-8.4369751182e-04 -8.4369751182e-04 1.7627612231e-03 
					0.0000000000e+00 -8.4369751182e-04 1.7627612231e-03 
				</DataArray>
				<DataArray type="Float32" Name="Acceleration" NumberOfComponents="3" ComponentName0="X" ComponentName1="Y" ComponentName2="Z" format="ascii">
					0.0000000000e+00 0.0000000000e+00 0.0000000000e+00 
					1.4086192365e+00 0.0000000000e+00 0.0000000000e+00 
					1.4086192365e+00 1.4086192365e+00 0.0000000000e+00 
					0.0000000000e+00 1.4086192365e+00 0.0000000000e+00 
					0.0000000000e+00 0.0000000000e+00 -4.4874366404e+00 
					1.4086192365e+00 0.0000000000e+00 -4.4874366404e+00 
					1.4086192365e+00 1.4086192365e+00 -4.4874366404e+00 
					0.0000000000e+00 1.4086192365e+00 -4.4874366404e+00 
				</DataArray>
			</PointData>
			<CellData>
				<DataArray type="Float32" Name="Stress (Cauchy)" NumberOfComponents="9" ComponentName0="XX" ComponentName1="XY" ComponentName2="XZ" ComponentName3="YX" ComponentName4="YY" ComponentName5="YZ" ComponentName6="ZX" ComponentName7="ZY" ComponentName8="ZZ" format="ascii">
					-1.7404400446e+00 -1.7546625506e-15 4.2197047621e-14
					-1.7546625506e-15 -1.7404400446e+00 -2.9679564413e-14
					4.2197047621e-14 -2.9679564413e-14 2.7344364212e+02
				</DataArray>
				<DataArray type="Float32" Name="Strain (Logarithmic)" NumberOfComponents="9" ComponentName0="XX" ComponentName1="XY" ComponentName2="XZ" ComponentName3="YX" ComponentName4="YY" ComponentName5="YZ" ComponentName6="ZX" ComponentName7="ZY" ComponentName8="ZZ" format="ascii">
					-1.1390586895e-02 0.0000000000e+00 0.0000000000e+00
					0.0000000000e+00 -1.1390586895e-02 0.0000000000e+00
					0.0000000000e+00 0.0000000000e+00 2.3006117458e-02
				</DataArray>
			</CellData>
		</Piece>
	</UnstructuredGrid>
</VTKFile>
