<?xml version="1.0"?>
<VTKFile type="UnstructuredGrid" version="0.1" byte_order="LittleEndian">
	<UnstructuredGrid>
		<Piece NumberOfPoints="8" NumberOfCells="1">
			<Points>
				<DataArray type="Float32" NumberOfComponents="3" format="ascii">
					0.00000000e+00 0.00000000e+00 0.00000000e+00
					5.00000000e-03 0.00000000e+00 0.00000000e+00
					5.00000000e-03 5.00000000e-03 0.00000000e+00
					0.00000000e+00 5.00000000e-03 0.00000000e+00
					0.00000000e+00 0.00000000e+00 5.00000000e-03
					5.00000000e-03 0.00000000e+00 5.00000000e-03
					5.00000000e-03 5.00000000e-03 5.00000000e-03
					0.00000000e+00 5.00000000e-03 5.00000000e-03
				</DataArray>
			</Points>
			<Cells>
				<DataArray type="Int32" Name="connectivity" format="ascii">
					0	1	2	3	4	5	6	7	

				</DataArray>
				<DataArray type="Int32" Name="offsets" format="ascii">
					8
				</DataArray>
				<DataArray type="UInt8" Name="types" format="ascii">
					12
				</DataArray>
			</Cells>
			<PointData>
				<DataArray type="Float32" Name="Displacement" NumberOfComponents="3" ComponentName0="X" ComponentName1="Y" ComponentName2="Z" format="ascii">
					0.0000000000e+00 0.0000000000e+00 0.0000000000e+00 
					-1.8291563795e-04 0.0000000000e+00 0.0000000000e+00 
					-1.8291563795e-04 -1.8291563795e-04 0.0000000000e+00 
					0.0000000000e+00 -1.8291563795e-04 0.0000000000e+00 
					0.0000000000e+00 0.0000000000e+00 3.9109106132e-04 
					-1.8291563795e-04 0.0000000000e+00 3.9109106132e-04 
					-1.8291563795e-04 -1.8291563795e-04 3.9109106132e-04 
					0.0000000000e+00 -1.8291563795e-04 3.9109106132e-04 
				</DataArray>
				<DataArray type="Float32" Name="Velocity" NumberOfComponents="3" ComponentName0="X" ComponentName1="Y" ComponentName2="Z" format="ascii">
					0.0000000000e+00 0.0000000000e+00 0.0000000000e+00 
					-4.3360635813e-03 0.0000000000e+00 0.0000000000e+00 
					-4.3360635813e-03 -4.3360635813e-03 0.0000000000e+00 
					0.0000000000e+00 -4.3360635812e-03 0.0000000000e+00 
					0.0000000000e+00 0.0000000000e+00 1.0130379323e-02 
					-4.3360635813e-03 0.0000000000e+00 1.0130379323e-02 
					-4.3360635813e-03 -4.3360635813e-03 1.0130379323e-02 
					0.0000000000e+00 -4.3360635813e-03 1.0130379323e-02 
				</DataArray>
				<DataArray type="Float32" Name="Acceleration" NumberOfComponents="3" ComponentName0="X" ComponentName1="Y" ComponentName2="Z" format="ascii">
					0.0000000000e+00 0.0000000000e+00 0.0000000000e+00 
					-6.6376258471e+00 0.0000000000e+00 0.0000000000e+00 
					-6.6376258471e+00 -6.6376258470e+00 0.0000000000e+00 
					0.0000000000e+00 -6.6376258472e+00 0.0000000000e+00 
					0.0000000000e+00 0.0000000000e+00 1.3645921346e+01 
					-6.6376258471e+00 0.0000000000e+00 1.3645921346e+01 
					-6.6376258471e+00 -6.6376258470e+00 1.3645921346e+01 
					0.0000000000e+00 -6.6376258472e+00 1.3645921346e+01 
				</DataArray>
			</PointData>
			<CellData>
				<DataArray type="Float32" Name="Stress (Cauchy)" NumberOfComponents="9" ComponentName0="XX" ComponentName1="XY" ComponentName2="XZ" ComponentName3="YX" ComponentName4="YY" ComponentName5="YZ" ComponentName6="ZX" ComponentName7="ZY" ComponentName8="ZZ" format="ascii">
					7.9873344552e+00 -1.7032361446e-12 -1.2315362955e-12
					-1.7032361446e-12 7.9873344552e+00 2.0685503755e-13
					-1.2315362955e-12 2.0685503755e-13 9.1046137526e+02
				</DataArray>
				<DataArray type="Float32" Name="Strain (Logarithmic)" NumberOfComponents="9" ComponentName0="XX" ComponentName1="XY" ComponentName2="XZ" ComponentName3="YX" ComponentName4="YY" ComponentName5="YZ" ComponentName6="ZX" ComponentName7="ZY" ComponentName8="ZZ" format="ascii">
					-3.7269071539e-02 0.0000000000e+00 0.0000000000e+00
					0.0000000000e+00 -3.7269071539e-02 0.0000000000e+00
					0.0000000000e+00 0.0000000000e+00 7.5309875252e-02
				</DataArray>
			</CellData>
		</Piece>
	</UnstructuredGrid>
</VTKFile>
