<?xml version="1.0"?>
<VTKFile type="UnstructuredGrid" version="0.1" byte_order="LittleEndian">
	<UnstructuredGrid>
		<Piece NumberOfPoints="8" NumberOfCells="1">
			<Points>
				<DataArray type="Float32" NumberOfComponents="3" format="ascii">
					0.00000000e+00 0.00000000e+00 0.00000000e+00
					5.00000000e-03 0.00000000e+00 0.00000000e+00
					5.00000000e-03 5.00000000e-03 0.00000000e+00
					0.00000000e+00 5.00000000e-03 0.00000000e+00
					0.00000000e+00 0.00000000e+00 5.00000000e-03
					5.00000000e-03 0.00000000e+00 5.00000000e-03
					5.00000000e-03 5.00000000e-03 5.00000000e-03
					0.00000000e+00 5.00000000e-03 5.00000000e-03
				</DataArray>
			</Points>
			<Cells>
				<DataArray type="Int32" Name="connectivity" format="ascii">
					0	1	2	3	4	5	6	7	

				</DataArray>
				<DataArray type="Int32" Name="offsets" format="ascii">
					8
				</DataArray>
				<DataArray type="UInt8" Name="types" format="ascii">
					12
				</DataArray>
			</Cells>
			<PointData>
				<DataArray type="Float32" Name="Displacement" NumberOfComponents="3" ComponentName0="X" ComponentName1="Y" ComponentName2="Z" format="ascii">
					0.0000000000e+00 0.0000000000e+00 0.0000000000e+00 
					-2.1528907296e-05 0.0000000000e+00 0.0000000000e+00 
					-2.1528907296e-05 -2.1528907296e-05 0.0000000000e+00 
					0.0000000000e+00 -2.1528907296e-05 0.0000000000e+00 
					0.0000000000e+00 0.0000000000e+00 4.3850715502e-05 
					-2.1528907296e-05 0.0000000000e+00 4.3850715502e-05 
					-2.1528907296e-05 -2.1528907296e-05 4.3850715502e-05 
					0.0000000000e+00 -2.1528907296e-05 4.3850715502e-05 
				</DataArray>
				<DataArray type="Float32" Name="Velocity" NumberOfComponents="3" ComponentName0="X" ComponentName1="Y" ComponentName2="Z" format="ascii">
					0.0000000000e+00 0.0000000000e+00 0.0000000000e+00 
					-1.9353919136e-02 0.0000000000e+00 0.0000000000e+00 
					-1.9353919136e-02 -1.9353919136e-02 0.0000000000e+00 
					0.0000000000e+00 -1.9353919136e-02 0.0000000000e+00 
					0.0000000000e+00 0.0000000000e+00 3.9290281982e-02 
					-1.9353919136e-02 0.0000000000e+00 3.9290281982e-02 
					-1.9353919136e-02 -1.9353919136e-02 3.9290281982e-02 
					0.0000000000e+00 -1.9353919136e-02 3.9290281982e-02 
				</DataArray>
				<DataArray type="Float32" Name="Acceleration" NumberOfComponents="3" ComponentName0="X" ComponentName1="Y" ComponentName2="Z" format="ascii">
					0.0000000000e+00 0.0000000000e+00 0.0000000000e+00 
					-4.7516742293e+00 0.0000000000e+00 0.0000000000e+00 
					-4.7516742293e+00 -4.7516742293e+00 0.0000000000e+00 
					0.0000000000e+00 -4.7516742293e+00 0.0000000000e+00 
					0.0000000000e+00 0.0000000000e+00 7.4712161629e+00 
					-4.7516742293e+00 0.0000000000e+00 7.4712161629e+00 
					-4.7516742293e+00 -4.7516742293e+00 7.4712161629e+00 
					0.0000000000e+00 -4.7516742293e+00 7.4712161629e+00 
				</DataArray>
			</PointData>
			<CellData>
				<DataArray type="Float32" Name="Stress (Cauchy)" NumberOfComponents="9" ComponentName0="XX" ComponentName1="XY" ComponentName2="XZ" ComponentName3="YX" ComponentName4="YY" ComponentName5="YZ" ComponentName6="ZX" ComponentName7="ZY" ComponentName8="ZZ" format="ascii">
					5.9134164613e+00 -8.7105687362e-16 8.7103216191e-16
					-8.7105687362e-16 5.9134164613e+00 8.7103216191e-16
					8.7103216191e-16 8.7103216191e-16 1.1028263890e+02
				</DataArray>
				<DataArray type="Float32" Name="Strain (Logarithmic)" NumberOfComponents="9" ComponentName0="XX" ComponentName1="XY" ComponentName2="XZ" ComponentName3="YX" ComponentName4="YY" ComponentName5="YZ" ComponentName6="ZX" ComponentName7="ZY" ComponentName8="ZZ" format="ascii">
					-4.3150780318e-03 0.0000000000e+00 0.0000000000e+00
					0.0000000000e+00 -4.3150780318e-03 0.0000000000e+00
					0.0000000000e+00 0.0000000000e+00 8.7319087799e-03
				</DataArray>
			</CellData>
		</Piece>
	</UnstructuredGrid>
</VTKFile>
