<?xml version="1.0"?>
<VTKFile type="UnstructuredGrid" version="0.1" byte_order="LittleEndian">
	<UnstructuredGrid>
		<Piece NumberOfPoints="8" NumberOfCells="1">
			<Points>
				<DataArray type="Float32" NumberOfComponents="3" format="ascii">
					0.00000000e+00 0.00000000e+00 0.00000000e+00
					5.00000000e-03 0.00000000e+00 0.00000000e+00
					5.00000000e-03 5.00000000e-03 0.00000000e+00
					0.00000000e+00 5.00000000e-03 0.00000000e+00
					0.00000000e+00 0.00000000e+00 5.00000000e-03
					5.00000000e-03 0.00000000e+00 5.00000000e-03
					5.00000000e-03 5.00000000e-03 5.00000000e-03
					0.00000000e+00 5.00000000e-03 5.00000000e-03
				</DataArray>
			</Points>
			<Cells>
				<DataArray type="Int32" Name="connectivity" format="ascii">
					0	1	2	3	4	5	6	7	

				</DataArray>
				<DataArray type="Int32" Name="offsets" format="ascii">
					8
				</DataArray>
				<DataArray type="UInt8" Name="types" format="ascii">
					12
				</DataArray>
			</Cells>
			<PointData>
				<DataArray type="Float32" Name="Displacement" NumberOfComponents="3" ComponentName0="X" ComponentName1="Y" ComponentName2="Z" format="ascii">
					0.0000000000e+00 0.0000000000e+00 0.0000000000e+00 
					-3.9431830483e-04 0.0000000000e+00 0.0000000000e+00 
					-3.9431830483e-04 -3.9431830483e-04 0.0000000000e+00 
					0.0000000000e+00 -3.9431830483e-04 0.0000000000e+00 
					0.0000000000e+00 0.0000000000e+00 9.0257622999e-04 
					-3.9431830483e-04 0.0000000000e+00 9.0257622999e-04 
					-3.9431830483e-04 -3.9431830483e-04 9.0257622999e-04 
					0.0000000000e+00 -3.9431830483e-04 9.0257622999e-04 
				</DataArray>
				<DataArray type="Float32" Name="Velocity" NumberOfComponents="3" ComponentName0="X" ComponentName1="Y" ComponentName2="Z" format="ascii">
					0.0000000000e+00 0.0000000000e+00 0.0000000000e+00 
					-8.4796158554e-03 0.0000000000e+00 0.0000000000e+00 
					-8.4796158555e-03 -8.4796158555e-03 0.0000000000e+00 
					0.0000000000e+00 -8.4796158554e-03 0.0000000000e+00 
					0.0000000000e+00 0.0000000000e+00 2.1818919690e-02 
					-8.4796158554e-03 0.0000000000e+00 2.1818919690e-02 
					-8.4796158554e-03 -8.4796158554e-03 2.1818919690e-02 
					0.0000000000e+00 -8.4796158554e-03 2.1818919690e-02 
				</DataArray>
				<DataArray type="Float32" Name="Acceleration" NumberOfComponents="3" ComponentName0="X" ComponentName1="Y" ComponentName2="Z" format="ascii">
					0.0000000000e+00 0.0000000000e+00 0.0000000000e+00 
					5.5763521449e+00 0.0000000000e+00 0.0000000000e+00 
					5.5763521451e+00 5.5763521450e+00 0.0000000000e+00 
					0.0000000000e+00 5.5763521450e+00 0.0000000000e+00 
					0.0000000000e+00 0.0000000000e+00 -1.6576672033e+01 
					5.5763521448e+00 0.0000000000e+00 -1.6576672033e+01 
					5.5763521451e+00 5.5763521449e+00 -1.6576672033e+01 
					0.0000000000e+00 5.5763521450e+00 -1.6576672033e+01 
				</DataArray>
			</PointData>
			<CellData>
				<DataArray type="Float32" Name="Stress (Cauchy)" NumberOfComponents="9" ComponentName0="XX" ComponentName1="XY" ComponentName2="XZ" ComponentName3="YX" ComponentName4="YY" ComponentName5="YZ" ComponentName6="ZX" ComponentName7="ZY" ComponentName8="ZZ" format="ascii">
					-6.4100982865e+00 -1.4027435483e-12 6.6474933712e-13
					-1.4027435483e-12 -6.4100982865e+00 -9.9057911788e-13
					6.6474933712e-13 -9.9057911788e-13 2.0023304262e+03
				</DataArray>
				<DataArray type="Float32" Name="Strain (Logarithmic)" NumberOfComponents="9" ComponentName0="XX" ComponentName1="XY" ComponentName2="XZ" ComponentName3="YX" ComponentName4="YY" ComponentName5="YZ" ComponentName6="ZX" ComponentName7="ZY" ComponentName8="ZZ" format="ascii">
					-8.2147219987e-02 0.0000000000e+00 0.0000000000e+00
					0.0000000000e+00 -8.2147219987e-02 0.0000000000e+00
					0.0000000000e+00 0.0000000000e+00 1.6595099232e-01
				</DataArray>
			</CellData>
		</Piece>
	</UnstructuredGrid>
</VTKFile>
