<?xml version="1.0"?>
<VTKFile type="UnstructuredGrid" version="0.1" byte_order="LittleEndian">
	<UnstructuredGrid>
		<Piece NumberOfPoints="8" NumberOfCells="1">
			<Points>
				<DataArray type="Float32" NumberOfComponents="3" format="ascii">
					0.00000000e+00 0.00000000e+00 0.00000000e+00
					5.00000000e-03 0.00000000e+00 0.00000000e+00
					5.00000000e-03 5.00000000e-03 0.00000000e+00
					0.00000000e+00 5.00000000e-03 0.00000000e+00
					0.00000000e+00 0.00000000e+00 5.00000000e-03
					5.00000000e-03 0.00000000e+00 5.00000000e-03
					5.00000000e-03 5.00000000e-03 5.00000000e-03
					0.00000000e+00 5.00000000e-03 5.00000000e-03
				</DataArray>
			</Points>
			<Cells>
				<DataArray type="Int32" Name="connectivity" format="ascii">
					0	1	2	3	4	5	6	7	

				</DataArray>
				<DataArray type="Int32" Name="offsets" format="ascii">
					8
				</DataArray>
				<DataArray type="UInt8" Name="types" format="ascii">
					12
				</DataArray>
			</Cells>
			<PointData>
				<DataArray type="Float32" Name="Displacement" NumberOfComponents="3" ComponentName0="X" ComponentName1="Y" ComponentName2="Z" format="ascii">
					0.0000000000e+00 0.0000000000e+00 0.0000000000e+00 
					-1.7436432404e-04 0.0000000000e+00 0.0000000000e+00 
					-1.7436432404e-04 -1.7436432404e-04 0.0000000000e+00 
					0.0000000000e+00 -1.7436432404e-04 0.0000000000e+00 
					0.0000000000e+00 0.0000000000e+00 3.7156817983e-04 
					-1.7436432404e-04 0.0000000000e+00 3.7156817983e-04 
					-1.7436432404e-04 -1.7436432404e-04 3.7156817983e-04 
					0.0000000000e+00 -1.7436432404e-04 3.7156817983e-04 
				</DataArray>
				<DataArray type="Float32" Name="Velocity" NumberOfComponents="3" ComponentName0="X" ComponentName1="Y" ComponentName2="Z" format="ascii">
					0.0000000000e+00 0.0000000000e+00 0.0000000000e+00 
					-9.7048607424e-03 0.0000000000e+00 0.0000000000e+00 
					-9.7048607424e-03 -9.7048607424e-03 0.0000000000e+00 
					0.0000000000e+00 -9.7048607424e-03 0.0000000000e+00 
					0.0000000000e+00 0.0000000000e+00 2.1902878469e-02 
					-9.7048607424e-03 0.0000000000e+00 2.1902878469e-02 
					-9.7048607424e-03 -9.7048607424e-03 2.1902878469e-02 
					0.0000000000e+00 -9.7048607424e-03 2.1902878469e-02 
				</DataArray>
				<DataArray type="Float32" Name="Acceleration" NumberOfComponents="3" ComponentName0="X" ComponentName1="Y" ComponentName2="Z" format="ascii">
					0.0000000000e+00 0.0000000000e+00 0.0000000000e+00 
					8.1317266271e+00 0.0000000000e+00 0.0000000000e+00 
					8.1317266271e+00 8.1317266271e+00 0.0000000000e+00 
					0.0000000000e+00 8.1317266271e+00 0.0000000000e+00 
					0.0000000000e+00 0.0000000000e+00 -2.1656796934e+01 
					8.1317266270e+00 0.0000000000e+00 -2.1656796934e+01 
					8.1317266270e+00 8.1317266270e+00 -2.1656796934e+01 
					0.0000000000e+00 8.1317266270e+00 -2.1656796934e+01 
				</DataArray>
			</PointData>
			<CellData>
				<DataArray type="Float32" Name="Stress (Cauchy)" NumberOfComponents="9" ComponentName0="XX" ComponentName1="XY" ComponentName2="XZ" ComponentName3="YX" ComponentName4="YY" ComponentName5="YZ" ComponentName6="ZX" ComponentName7="ZY" ComponentName8="ZZ" format="ascii">
					-9.8034100564e+00 4.3217983319e-14 3.8272569204e-13
					4.3217983319e-14 -9.8034100564e+00 6.8566508463e-13
					3.8272569204e-13 6.8566508463e-13 8.4921283032e+02
				</DataArray>
				<DataArray type="Float32" Name="Strain (Logarithmic)" NumberOfComponents="9" ComponentName0="XX" ComponentName1="XY" ComponentName2="XZ" ComponentName3="YX" ComponentName4="YY" ComponentName5="YZ" ComponentName6="ZX" ComponentName7="ZY" ComponentName8="ZZ" format="ascii">
					-3.5495440008e-02 0.0000000000e+00 0.0000000000e+00
					0.0000000000e+00 -3.5495440008e-02 0.0000000000e+00
					0.0000000000e+00 0.0000000000e+00 7.1681979494e-02
				</DataArray>
			</CellData>
		</Piece>
	</UnstructuredGrid>
</VTKFile>
