<?xml version="1.0"?>
<VTKFile type="UnstructuredGrid" version="0.1" byte_order="LittleEndian">
	<UnstructuredGrid>
		<Piece NumberOfPoints="8" NumberOfCells="1">
			<Points>
				<DataArray type="Float32" NumberOfComponents="3" format="ascii">
					0.00000000e+00 0.00000000e+00 0.00000000e+00
					5.00000000e-03 0.00000000e+00 0.00000000e+00
					5.00000000e-03 5.00000000e-03 0.00000000e+00
					0.00000000e+00 5.00000000e-03 0.00000000e+00
					0.00000000e+00 0.00000000e+00 5.00000000e-03
					5.00000000e-03 0.00000000e+00 5.00000000e-03
					5.00000000e-03 5.00000000e-03 5.00000000e-03
					0.00000000e+00 5.00000000e-03 5.00000000e-03
				</DataArray>
			</Points>
			<Cells>
				<DataArray type="Int32" Name="connectivity" format="ascii">
					0	1	2	3	4	5	6	7	

				</DataArray>
				<DataArray type="Int32" Name="offsets" format="ascii">
					8
				</DataArray>
				<DataArray type="UInt8" Name="types" format="ascii">
					12
				</DataArray>
			</Cells>
			<PointData>
				<DataArray type="Float32" Name="Displacement" NumberOfComponents="3" ComponentName0="X" ComponentName1="Y" ComponentName2="Z" format="ascii">
					0.0000000000e+00 0.0000000000e+00 0.0000000000e+00 
					-1.0420945370e-04 0.0000000000e+00 0.0000000000e+00 
					-1.0420945370e-04 -1.0420945370e-04 0.0000000000e+00 
					0.0000000000e+00 -1.0420945370e-04 0.0000000000e+00 
					0.0000000000e+00 0.0000000000e+00 2.1718121600e-04 
					-1.0420945370e-04 0.0000000000e+00 2.1718121600e-04 
					-1.0420945370e-04 -1.0420945370e-04 2.1718121600e-04 
					0.0000000000e+00 -1.0420945370e-04 2.1718121600e-04 
				</DataArray>
				<DataArray type="Float32" Name="Velocity" NumberOfComponents="3" ComponentName0="X" ComponentName1="Y" ComponentName2="Z" format="ascii">
					0.0000000000e+00 0.0000000000e+00 0.0000000000e+00 
					-1.4974961826e-02 0.0000000000e+00 0.0000000000e+00 
					-1.4974961826e-02 -1.4974961826e-02 0.0000000000e+00 
					0.0000000000e+00 -1.4974961826e-02 0.0000000000e+00 
					0.0000000000e+00 0.0000000000e+00 3.2343128979e-02 
					-1.4974961826e-02 0.0000000000e+00 3.2343128979e-02 
					-1.4974961826e-02 -1.4974961826e-02 3.2343128979e-02 
					0.0000000000e+00 -1.4974961826e-02 3.2343128979e-02 
				</DataArray>
				<DataArray type="Float32" Name="Acceleration" NumberOfComponents="3" ComponentName0="X" ComponentName1="Y" ComponentName2="Z" format="ascii">
					0.0000000000e+00 0.0000000000e+00 0.0000000000e+00 
					9.4690792174e+00 0.0000000000e+00 0.0000000000e+00 
					9.4690792174e+00 9.4690792175e+00 0.0000000000e+00 
					0.0000000000e+00 9.4690792174e+00 0.0000000000e+00 
					0.0000000000e+00 0.0000000000e+00 -1.8205291558e+01 
					9.4690792174e+00 0.0000000000e+00 -1.8205291558e+01 
					9.4690792174e+00 9.4690792174e+00 -1.8205291558e+01 
					0.0000000000e+00 9.4690792173e+00 -1.8205291559e+01 
				</DataArray>
			</PointData>
			<CellData>
				<DataArray type="Float32" Name="Stress (Cauchy)" NumberOfComponents="9" ComponentName0="XX" ComponentName1="XY" ComponentName2="XZ" ComponentName3="YX" ComponentName4="YY" ComponentName5="YZ" ComponentName6="ZX" ComponentName7="ZY" ComponentName8="ZZ" format="ascii">
					-1.1585079548e+01 -9.6426143436e-13 -4.2278003310e-13
					-9.6426143436e-13 -1.1585079548e+01 3.8795020801e-13
					-4.2278003310e-13 3.8795020801e-13 4.9732290175e+02
				</DataArray>
				<DataArray type="Float32" Name="Strain (Logarithmic)" NumberOfComponents="9" ComponentName0="XX" ComponentName1="XY" ComponentName2="XZ" ComponentName3="YX" ComponentName4="YY" ComponentName5="YZ" ComponentName6="ZX" ComponentName7="ZY" ComponentName8="ZZ" format="ascii">
					-2.1062148716e-02 0.0000000000e+00 0.0000000000e+00
					0.0000000000e+00 -2.1062148716e-02 0.0000000000e+00
					0.0000000000e+00 0.0000000000e+00 4.2519346675e-02
				</DataArray>
			</CellData>
		</Piece>
	</UnstructuredGrid>
</VTKFile>
