<?xml version="1.0"?>
<VTKFile type="UnstructuredGrid" version="0.1" byte_order="LittleEndian">
	<UnstructuredGrid>
		<Piece NumberOfPoints="8" NumberOfCells="1">
			<Points>
				<DataArray type="Float32" NumberOfComponents="3" format="ascii">
					0.00000000e+00 0.00000000e+00 0.00000000e+00
					5.00000000e-03 0.00000000e+00 0.00000000e+00
					5.00000000e-03 5.00000000e-03 0.00000000e+00
					0.00000000e+00 5.00000000e-03 0.00000000e+00
					0.00000000e+00 0.00000000e+00 5.00000000e-03
					5.00000000e-03 0.00000000e+00 5.00000000e-03
					5.00000000e-03 5.00000000e-03 5.00000000e-03
					0.00000000e+00 5.00000000e-03 5.00000000e-03
				</DataArray>
			</Points>
			<Cells>
				<DataArray type="Int32" Name="connectivity" format="ascii">
					0	1	2	3	4	5	6	7	

				</DataArray>
				<DataArray type="Int32" Name="offsets" format="ascii">
					8
				</DataArray>
				<DataArray type="UInt8" Name="types" format="ascii">
					12
				</DataArray>
			</Cells>
			<PointData>
				<DataArray type="Float32" Name="Displacement" NumberOfComponents="3" ComponentName0="X" ComponentName1="Y" ComponentName2="Z" format="ascii">
					0.0000000000e+00 0.0000000000e+00 0.0000000000e+00 
					-8.5126465114e-05 0.0000000000e+00 0.0000000000e+00 
					-8.5126465114e-05 -8.5126465114e-05 0.0000000000e+00 
					0.0000000000e+00 -8.5126465114e-05 0.0000000000e+00 
					0.0000000000e+00 0.0000000000e+00 1.7650633036e-04 
					-8.5126465114e-05 0.0000000000e+00 1.7650633036e-04 
					-8.5126465114e-05 -8.5126465114e-05 1.7650633036e-04 
					0.0000000000e+00 -8.5126465114e-05 1.7650633036e-04 
				</DataArray>
				<DataArray type="Float32" Name="Velocity" NumberOfComponents="3" ComponentName0="X" ComponentName1="Y" ComponentName2="Z" format="ascii">
					0.0000000000e+00 0.0000000000e+00 0.0000000000e+00 
					-1.9983758830e-02 0.0000000000e+00 0.0000000000e+00 
					-1.9983758830e-02 -1.9983758830e-02 0.0000000000e+00 
					0.0000000000e+00 -1.9983758829e-02 0.0000000000e+00 
					0.0000000000e+00 0.0000000000e+00 4.2135908454e-02 
					-1.9983758829e-02 0.0000000000e+00 4.2135908454e-02 
					-1.9983758829e-02 -1.9983758830e-02 4.2135908454e-02 
					0.0000000000e+00 -1.9983758829e-02 4.2135908454e-02 
				</DataArray>
				<DataArray type="Float32" Name="Acceleration" NumberOfComponents="3" ComponentName0="X" ComponentName1="Y" ComponentName2="Z" format="ascii">
					0.0000000000e+00 0.0000000000e+00 0.0000000000e+00 
					-9.4303919297e-01 0.0000000000e+00 0.0000000000e+00 
					-9.4303919297e-01 -9.4303919295e-01 0.0000000000e+00 
					0.0000000000e+00 -9.4303919299e-01 0.0000000000e+00 
					0.0000000000e+00 0.0000000000e+00 1.5664278017e+00 
					-9.4303919293e-01 0.0000000000e+00 1.5664278018e+00 
					-9.4303919294e-01 -9.4303919292e-01 1.5664278017e+00 
					0.0000000000e+00 -9.4303919295e-01 1.5664278017e+00 
				</DataArray>
			</PointData>
			<CellData>
				<DataArray type="Float32" Name="Stress (Cauchy)" NumberOfComponents="9" ComponentName0="XX" ComponentName1="XY" ComponentName2="XZ" ComponentName3="YX" ComponentName4="YY" ComponentName5="YZ" ComponentName6="ZX" ComponentName7="ZY" ComponentName8="ZZ" format="ascii">
					1.1583256335e+00 -4.1658922775e-13 -4.9491567273e-13
					-4.1658922775e-13 1.1583256335e+00 -2.4987215268e-13
					-4.9491567273e-13 -2.4987215268e-13 4.1617648184e+02
				</DataArray>
				<DataArray type="Float32" Name="Strain (Logarithmic)" NumberOfComponents="9" ComponentName0="XX" ComponentName1="XY" ComponentName2="XZ" ComponentName3="YX" ComponentName4="YY" ComponentName5="YZ" ComponentName6="ZX" ComponentName7="ZY" ComponentName8="ZZ" format="ascii">
					-1.7171889606e-02 0.0000000000e+00 0.0000000000e+00
					0.0000000000e+00 -1.7171889606e-02 0.0000000000e+00
					0.0000000000e+00 0.0000000000e+00 3.4692462693e-02
				</DataArray>
			</CellData>
		</Piece>
	</UnstructuredGrid>
</VTKFile>
