<?xml version="1.0"?>
<VTKFile type="UnstructuredGrid" version="0.1" byte_order="LittleEndian">
	<UnstructuredGrid>
		<Piece NumberOfPoints="8" NumberOfCells="1">
			<Points>
				<DataArray type="Float32" NumberOfComponents="3" format="ascii">
					0.00000000e+00 0.00000000e+00 0.00000000e+00
					5.00000000e-03 0.00000000e+00 0.00000000e+00
					5.00000000e-03 5.00000000e-03 0.00000000e+00
					0.00000000e+00 5.00000000e-03 0.00000000e+00
					0.00000000e+00 0.00000000e+00 5.00000000e-03
					5.00000000e-03 0.00000000e+00 5.00000000e-03
					5.00000000e-03 5.00000000e-03 5.00000000e-03
					0.00000000e+00 5.00000000e-03 5.00000000e-03
				</DataArray>
			</Points>
			<Cells>
				<DataArray type="Int32" Name="connectivity" format="ascii">
					0	1	2	3	4	5	6	7	

				</DataArray>
				<DataArray type="Int32" Name="offsets" format="ascii">
					8
				</DataArray>
				<DataArray type="UInt8" Name="types" format="ascii">
					12
				</DataArray>
			</Cells>
			<PointData>
				<DataArray type="Float32" Name="Displacement" NumberOfComponents="3" ComponentName0="X" ComponentName1="Y" ComponentName2="Z" format="ascii">
					0.0000000000e+00 0.0000000000e+00 0.0000000000e+00 
					-4.0031372641e-04 0.0000000000e+00 0.0000000000e+00 
					-4.0031372641e-04 -4.0031372641e-04 0.0000000000e+00 
					0.0000000000e+00 -4.0031372641e-04 0.0000000000e+00 
					0.0000000000e+00 0.0000000000e+00 9.1819770325e-04 
					-4.0031372641e-04 0.0000000000e+00 9.1819770325e-04 
					-4.0031372641e-04 -4.0031372641e-04 9.1819770325e-04 
					0.0000000000e+00 -4.0031372641e-04 9.1819770325e-04 
				</DataArray>
				<DataArray type="Float32" Name="Velocity" NumberOfComponents="3" ComponentName0="X" ComponentName1="Y" ComponentName2="Z" format="ascii">
					0.0000000000e+00 0.0000000000e+00 0.0000000000e+00 
					-4.7954929797e-03 0.0000000000e+00 0.0000000000e+00 
					-4.7954929797e-03 -4.7954929797e-03 0.0000000000e+00 
					0.0000000000e+00 -4.7954929797e-03 0.0000000000e+00 
					0.0000000000e+00 0.0000000000e+00 1.2562808688e-02 
					-4.7954929797e-03 0.0000000000e+00 1.2562808688e-02 
					-4.7954929797e-03 -4.7954929797e-03 1.2562808688e-02 
					0.0000000000e+00 -4.7954929797e-03 1.2562808688e-02 
				</DataArray>
				<DataArray type="Float32" Name="Acceleration" NumberOfComponents="3" ComponentName0="X" ComponentName1="Y" ComponentName2="Z" format="ascii">
					0.0000000000e+00 0.0000000000e+00 0.0000000000e+00 
					1.8787343728e+00 0.0000000000e+00 0.0000000000e+00 
					1.8787343730e+00 1.8787343729e+00 0.0000000000e+00 
					0.0000000000e+00 1.8787343729e+00 0.0000000000e+00 
					0.0000000000e+00 0.0000000000e+00 -6.0313241934e-01 
					1.8787343727e+00 0.0000000000e+00 -6.0313241938e-01 
					1.8787343730e+00 1.8787343728e+00 -6.0313241920e-01 
					0.0000000000e+00 1.8787343729e+00 -6.0313241913e-01 
				</DataArray>
			</PointData>
			<CellData>
				<DataArray type="Float32" Name="Stress (Cauchy)" NumberOfComponents="9" ComponentName0="XX" ComponentName1="XY" ComponentName2="XZ" ComponentName3="YX" ComponentName4="YY" ComponentName5="YZ" ComponentName6="ZX" ComponentName7="ZY" ComponentName8="ZZ" format="ascii">
					-2.1567396500e+00 -1.4814948793e-12 1.0408588429e-12
					-1.4814948793e-12 -2.1567396500e+00 -8.6052800963e-13
					1.0408588429e-12 -8.6052800963e-13 2.0393444242e+03
				</DataArray>
				<DataArray type="Float32" Name="Strain (Logarithmic)" NumberOfComponents="9" ComponentName0="XX" ComponentName1="XY" ComponentName2="XZ" ComponentName3="YX" ComponentName4="YY" ComponentName5="YZ" ComponentName6="ZX" ComponentName7="ZY" ComponentName8="ZZ" format="ascii">
					-8.3449812658e-02 -2.4136929316e-16 0.0000000000e+00
					0.0000000000e+00 -8.3449812658e-02 0.0000000000e+00
					0.0000000000e+00 0.0000000000e+00 1.6859404809e-01
				</DataArray>
			</CellData>
		</Piece>
	</UnstructuredGrid>
</VTKFile>
