<?xml version="1.0"?>
<VTKFile type="UnstructuredGrid" version="0.1" byte_order="LittleEndian">
	<UnstructuredGrid>
		<Piece NumberOfPoints="8" NumberOfCells="1">
			<Points>
				<DataArray type="Float32" NumberOfComponents="3" format="ascii">
					0.00000000e+00 0.00000000e+00 0.00000000e+00
					5.00000000e-03 0.00000000e+00 0.00000000e+00
					5.00000000e-03 5.00000000e-03 0.00000000e+00
					0.00000000e+00 5.00000000e-03 0.00000000e+00
					0.00000000e+00 0.00000000e+00 5.00000000e-03
					5.00000000e-03 0.00000000e+00 5.00000000e-03
					5.00000000e-03 5.00000000e-03 5.00000000e-03
					0.00000000e+00 5.00000000e-03 5.00000000e-03
				</DataArray>
			</Points>
			<Cells>
				<DataArray type="Int32" Name="connectivity" format="ascii">
					0	1	2	3	4	5	6	7	

				</DataArray>
				<DataArray type="Int32" Name="offsets" format="ascii">
					8
				</DataArray>
				<DataArray type="UInt8" Name="types" format="ascii">
					12
				</DataArray>
			</Cells>
			<PointData>
				<DataArray type="Float32" Name="Displacement" NumberOfComponents="3" ComponentName0="X" ComponentName1="Y" ComponentName2="Z" format="ascii">
					0.0000000000e+00 0.0000000000e+00 0.0000000000e+00 
					-1.1072082809e-04 0.0000000000e+00 0.0000000000e+00 
					-1.1072082809e-04 -1.1072082809e-04 0.0000000000e+00 
					0.0000000000e+00 -1.1072082809e-04 0.0000000000e+00 
					0.0000000000e+00 0.0000000000e+00 2.3123358587e-04 
					-1.1072082809e-04 0.0000000000e+00 2.3123358587e-04 
					-1.1072082809e-04 -1.1072082809e-04 2.3123358587e-04 
					0.0000000000e+00 -1.1072082809e-04 2.3123358587e-04 
				</DataArray>
				<DataArray type="Float32" Name="Velocity" NumberOfComponents="3" ComponentName0="X" ComponentName1="Y" ComponentName2="Z" format="ascii">
					0.0000000000e+00 0.0000000000e+00 0.0000000000e+00 
					-9.9456395326e-03 0.0000000000e+00 0.0000000000e+00 
					-9.9456395326e-03 -9.9456395326e-03 0.0000000000e+00 
					0.0000000000e+00 -9.9456395326e-03 0.0000000000e+00 
					0.0000000000e+00 0.0000000000e+00 2.1632988430e-02 
					-9.9456395326e-03 0.0000000000e+00 2.1632988430e-02 
					-9.9456395326e-03 -9.9456395326e-03 2.1632988430e-02 
					0.0000000000e+00 -9.9456395326e-03 2.1632988430e-02 
				</DataArray>
				<DataArray type="Float32" Name="Acceleration" NumberOfComponents="3" ComponentName0="X" ComponentName1="Y" ComponentName2="Z" format="ascii">
					0.0000000000e+00 0.0000000000e+00 0.0000000000e+00 
					9.0720889090e+00 0.0000000000e+00 0.0000000000e+00 
					9.0720889090e+00 9.0720889089e+00 0.0000000000e+00 
					0.0000000000e+00 9.0720889090e+00 0.0000000000e+00 
					0.0000000000e+00 0.0000000000e+00 -2.2296312282e+01 
					9.0720889090e+00 0.0000000000e+00 -2.2296312282e+01 
					9.0720889090e+00 9.0720889090e+00 -2.2296312282e+01 
					0.0000000000e+00 9.0720889091e+00 -2.2296312282e+01 
				</DataArray>
			</PointData>
			<CellData>
				<DataArray type="Float32" Name="Stress (Cauchy)" NumberOfComponents="9" ComponentName0="XX" ComponentName1="XY" ComponentName2="XZ" ComponentName3="YX" ComponentName4="YY" ComponentName5="YZ" ComponentName6="ZX" ComponentName7="ZY" ComponentName8="ZZ" format="ascii">
					-1.1084302541e+01 1.0295336691e-12 4.2185677128e-13
					1.0295336691e-12 -1.1084302541e+01 -3.5165778243e-13
					4.2185677128e-13 -3.5165778243e-13 5.3005397811e+02
				</DataArray>
				<DataArray type="Float32" Name="Strain (Logarithmic)" NumberOfComponents="9" ComponentName0="XX" ComponentName1="XY" ComponentName2="XZ" ComponentName3="YX" ComponentName4="YY" ComponentName5="YZ" ComponentName6="ZX" ComponentName7="ZY" ComponentName8="ZZ" format="ascii">
					-2.2393028420e-02 0.0000000000e+00 0.0000000000e+00
					0.0000000000e+00 -2.2393028420e-02 0.0000000000e+00
					0.0000000000e+00 0.0000000000e+00 4.5209205110e-02
				</DataArray>
			</CellData>
		</Piece>
	</UnstructuredGrid>
</VTKFile>
