<?xml version="1.0"?>
<VTKFile type="UnstructuredGrid" version="0.1" byte_order="LittleEndian">
	<UnstructuredGrid>
		<Piece NumberOfPoints="8" NumberOfCells="1">
			<Points>
				<DataArray type="Float32" NumberOfComponents="3" format="ascii">
					0.00000000e+00 0.00000000e+00 0.00000000e+00
					5.00000000e-03 0.00000000e+00 0.00000000e+00
					5.00000000e-03 5.00000000e-03 0.00000000e+00
					0.00000000e+00 5.00000000e-03 0.00000000e+00
					0.00000000e+00 0.00000000e+00 5.00000000e-03
					5.00000000e-03 0.00000000e+00 5.00000000e-03
					5.00000000e-03 5.00000000e-03 5.00000000e-03
					0.00000000e+00 5.00000000e-03 5.00000000e-03
				</DataArray>
			</Points>
			<Cells>
				<DataArray type="Int32" Name="connectivity" format="ascii">
					0	1	2	3	4	5	6	7	

				</DataArray>
				<DataArray type="Int32" Name="offsets" format="ascii">
					8
				</DataArray>
				<DataArray type="UInt8" Name="types" format="ascii">
					12
				</DataArray>
			</Cells>
			<PointData>
				<DataArray type="Float32" Name="Displacement" NumberOfComponents="3" ComponentName0="X" ComponentName1="Y" ComponentName2="Z" format="ascii">
					0.0000000000e+00 0.0000000000e+00 0.0000000000e+00 
					-2.8564891849e-04 0.0000000000e+00 0.0000000000e+00 
					-2.8564891849e-04 -2.8564891849e-04 0.0000000000e+00 
					0.0000000000e+00 -2.8564891849e-04 0.0000000000e+00 
					0.0000000000e+00 0.0000000000e+00 6.3098617192e-04 
					-2.8564891849e-04 0.0000000000e+00 6.3098617192e-04 
					-2.8564891849e-04 -2.8564891849e-04 6.3098617192e-04 
					0.0000000000e+00 -2.8564891849e-04 6.3098617192e-04 
				</DataArray>
				<DataArray type="Float32" Name="Velocity" NumberOfComponents="3" ComponentName0="X" ComponentName1="Y" ComponentName2="Z" format="ascii">
					0.0000000000e+00 0.0000000000e+00 0.0000000000e+00 
					-1.9979879630e-02 0.0000000000e+00 0.0000000000e+00 
					-1.9979879630e-02 -1.9979879630e-02 0.0000000000e+00 
					0.0000000000e+00 -1.9979879630e-02 0.0000000000e+00 
					0.0000000000e+00 0.0000000000e+00 4.8118674033e-02 
					-1.9979879630e-02 0.0000000000e+00 4.8118674033e-02 
					-1.9979879630e-02 -1.9979879630e-02 4.8118674033e-02 
					0.0000000000e+00 -1.9979879630e-02 4.8118674033e-02 
				</DataArray>
				<DataArray type="Float32" Name="Acceleration" NumberOfComponents="3" ComponentName0="X" ComponentName1="Y" ComponentName2="Z" format="ascii">
					0.0000000000e+00 0.0000000000e+00 0.0000000000e+00 
					-9.2597016661e-01 0.0000000000e+00 0.0000000000e+00 
					-9.2597016648e-01 -9.2597016650e-01 0.0000000000e+00 
					0.0000000000e+00 -9.2597016660e-01 0.0000000000e+00 
					0.0000000000e+00 0.0000000000e+00 -1.0718298901e+00 
					-9.2597016664e-01 0.0000000000e+00 -1.0718298900e+00 
					-9.2597016650e-01 -9.2597016650e-01 -1.0718298899e+00 
					0.0000000000e+00 -9.2597016663e-01 -1.0718298900e+00 
				</DataArray>
			</PointData>
			<CellData>
				<DataArray type="Float32" Name="Stress (Cauchy)" NumberOfComponents="9" ComponentName0="XX" ComponentName1="XY" ComponentName2="XZ" ComponentName3="YX" ComponentName4="YY" ComponentName5="YZ" ComponentName6="ZX" ComponentName7="ZY" ComponentName8="ZZ" format="ascii">
					1.0900354788e+00 -2.1910447998e-12 -5.5757200766e-13
					-2.1910447998e-12 1.0900354788e+00 -7.4268741990e-13
					-5.5757200766e-13 -7.4268741990e-13 1.4307661319e+03
				</DataArray>
				<DataArray type="Float32" Name="Strain (Logarithmic)" NumberOfComponents="9" ComponentName0="XX" ComponentName1="XY" ComponentName2="XZ" ComponentName3="YX" ComponentName4="YY" ComponentName5="YZ" ComponentName6="ZX" ComponentName7="ZY" ComponentName8="ZZ" format="ascii">
					-5.8826634345e-02 0.0000000000e+00 0.0000000000e+00
					0.0000000000e+00 -5.8826634345e-02 0.0000000000e+00
					0.0000000000e+00 0.0000000000e+00 1.1884667813e-01
				</DataArray>
			</CellData>
		</Piece>
	</UnstructuredGrid>
</VTKFile>
