<?xml version="1.0"?>
<VTKFile type="UnstructuredGrid" version="0.1" byte_order="LittleEndian">
	<UnstructuredGrid>
		<Piece NumberOfPoints="8" NumberOfCells="1">
			<Points>
				<DataArray type="Float32" NumberOfComponents="3" format="ascii">
					0.00000000e+00 0.00000000e+00 0.00000000e+00
					5.00000000e-03 0.00000000e+00 0.00000000e+00
					5.00000000e-03 5.00000000e-03 0.00000000e+00
					0.00000000e+00 5.00000000e-03 0.00000000e+00
					0.00000000e+00 0.00000000e+00 5.00000000e-03
					5.00000000e-03 0.00000000e+00 5.00000000e-03
					5.00000000e-03 5.00000000e-03 5.00000000e-03
					0.00000000e+00 5.00000000e-03 5.00000000e-03
				</DataArray>
			</Points>
			<Cells>
				<DataArray type="Int32" Name="connectivity" format="ascii">
					0	1	2	3	4	5	6	7	

				</DataArray>
				<DataArray type="Int32" Name="offsets" format="ascii">
					8
				</DataArray>
				<DataArray type="UInt8" Name="types" format="ascii">
					12
				</DataArray>
			</Cells>
			<PointData>
				<DataArray type="Float32" Name="Displacement" NumberOfComponents="3" ComponentName0="X" ComponentName1="Y" ComponentName2="Z" format="ascii">
					0.0000000000e+00 0.0000000000e+00 0.0000000000e+00 
					-5.3587346246e-04 0.0000000000e+00 0.0000000000e+00 
					-5.3587346246e-04 -5.3587346246e-04 0.0000000000e+00 
					0.0000000000e+00 -5.3587346246e-04 0.0000000000e+00 
					0.0000000000e+00 0.0000000000e+00 1.2870627096e-03 
					-5.3587346246e-04 0.0000000000e+00 1.2870627096e-03 
					-5.3587346246e-04 -5.3587346246e-04 1.2870627096e-03 
					0.0000000000e+00 -5.3587346246e-04 1.2870627096e-03 
				</DataArray>
				<DataArray type="Float32" Name="Velocity" NumberOfComponents="3" ComponentName0="X" ComponentName1="Y" ComponentName2="Z" format="ascii">
					0.0000000000e+00 0.0000000000e+00 0.0000000000e+00 
					-1.9812233111e-02 0.0000000000e+00 0.0000000000e+00 
					-1.9812233111e-02 -1.9812233111e-02 0.0000000000e+00 
					0.0000000000e+00 -1.9812233111e-02 0.0000000000e+00 
					0.0000000000e+00 0.0000000000e+00 5.6497527342e-02 
					-1.9812233111e-02 0.0000000000e+00 5.6497527342e-02 
					-1.9812233111e-02 -1.9812233111e-02 5.6497527342e-02 
					0.0000000000e+00 -1.9812233111e-02 5.6497527342e-02 
				</DataArray>
				<DataArray type="Float32" Name="Acceleration" NumberOfComponents="3" ComponentName0="X" ComponentName1="Y" ComponentName2="Z" format="ascii">
					0.0000000000e+00 0.0000000000e+00 0.0000000000e+00 
					2.6257999172e+00 0.0000000000e+00 0.0000000000e+00 
					2.6257999173e+00 2.6257999172e+00 0.0000000000e+00 
					0.0000000000e+00 2.6257999173e+00 0.0000000000e+00 
					0.0000000000e+00 0.0000000000e+00 -3.3139992354e+00 
					2.6257999173e+00 0.0000000000e+00 -3.3139992354e+00 
					2.6257999173e+00 2.6257999173e+00 -3.3139992354e+00 
					0.0000000000e+00 2.6257999173e+00 -3.3139992353e+00 
				</DataArray>
			</PointData>
			<CellData>
				<DataArray type="Float32" Name="Stress (Cauchy)" NumberOfComponents="9" ComponentName0="XX" ComponentName1="XY" ComponentName2="XZ" ComponentName3="YX" ComponentName4="YY" ComponentName5="YZ" ComponentName6="ZX" ComponentName7="ZY" ComponentName8="ZZ" format="ascii">
					-2.9236633488e+00 -2.8644054922e-13 3.5280237616e-13
					-2.8644054922e-13 -2.9236633488e+00 -6.8243575653e-13
					3.5280237616e-13 -6.8243575653e-13 2.8019659007e+03
				</DataArray>
				<DataArray type="Float32" Name="Strain (Logarithmic)" NumberOfComponents="9" ComponentName0="XX" ComponentName1="XY" ComponentName2="XZ" ComponentName3="YX" ComponentName4="YY" ComponentName5="YZ" ComponentName6="ZX" ComponentName7="ZY" ComponentName8="ZZ" format="ascii">
					-1.1336434153e-01 0.0000000000e+00 0.0000000000e+00
					0.0000000000e+00 -1.1336434153e-01 0.0000000000e+00
					0.0000000000e+00 0.0000000000e+00 2.2905607141e-01
				</DataArray>
			</CellData>
		</Piece>
	</UnstructuredGrid>
</VTKFile>
