<?xml version="1.0"?>
<VTKFile type="UnstructuredGrid" version="0.1" byte_order="LittleEndian">
	<UnstructuredGrid>
		<Piece NumberOfPoints="8" NumberOfCells="1">
			<Points>
				<DataArray type="Float32" NumberOfComponents="3" format="ascii">
					0.00000000e+00 0.00000000e+00 0.00000000e+00
					5.00000000e-03 0.00000000e+00 0.00000000e+00
					5.00000000e-03 5.00000000e-03 0.00000000e+00
					0.00000000e+00 5.00000000e-03 0.00000000e+00
					0.00000000e+00 0.00000000e+00 5.00000000e-03
					5.00000000e-03 0.00000000e+00 5.00000000e-03
					5.00000000e-03 5.00000000e-03 5.00000000e-03
					0.00000000e+00 5.00000000e-03 5.00000000e-03
				</DataArray>
			</Points>
			<Cells>
				<DataArray type="Int32" Name="connectivity" format="ascii">
					0	1	2	3	4	5	6	7	

				</DataArray>
				<DataArray type="Int32" Name="offsets" format="ascii">
					8
				</DataArray>
				<DataArray type="UInt8" Name="types" format="ascii">
					12
				</DataArray>
			</Cells>
			<PointData>
				<DataArray type="Float32" Name="Displacement" NumberOfComponents="3" ComponentName0="X" ComponentName1="Y" ComponentName2="Z" format="ascii">
					0.0000000000e+00 0.0000000000e+00 0.0000000000e+00 
					-3.1959138917e-04 0.0000000000e+00 0.0000000000e+00 
					-3.1959138917e-04 -3.1959138917e-04 0.0000000000e+00 
					0.0000000000e+00 -3.1959138917e-04 0.0000000000e+00 
					0.0000000000e+00 0.0000000000e+00 7.1372503971e-04 
					-3.1959138917e-04 0.0000000000e+00 7.1372503971e-04 
					-3.1959138917e-04 -3.1959138917e-04 7.1372503971e-04 
					0.0000000000e+00 -3.1959138917e-04 7.1372503971e-04 
				</DataArray>
				<DataArray type="Float32" Name="Velocity" NumberOfComponents="3" ComponentName0="X" ComponentName1="Y" ComponentName2="Z" format="ascii">
					0.0000000000e+00 0.0000000000e+00 0.0000000000e+00 
					-5.2583087958e-03 0.0000000000e+00 0.0000000000e+00 
					-5.2583087958e-03 -5.2583087958e-03 0.0000000000e+00 
					0.0000000000e+00 -5.2583087958e-03 0.0000000000e+00 
					0.0000000000e+00 0.0000000000e+00 1.3237571316e-02 
					-5.2583087958e-03 0.0000000000e+00 1.3237571316e-02 
					-5.2583087958e-03 -5.2583087958e-03 1.3237571316e-02 
					0.0000000000e+00 -5.2583087958e-03 1.3237571316e-02 
				</DataArray>
				<DataArray type="Float32" Name="Acceleration" NumberOfComponents="3" ComponentName0="X" ComponentName1="Y" ComponentName2="Z" format="ascii">
					0.0000000000e+00 0.0000000000e+00 0.0000000000e+00 
					3.6843332280e+00 0.0000000000e+00 0.0000000000e+00 
					3.6843332279e+00 3.6843332279e+00 0.0000000000e+00 
					0.0000000000e+00 3.6843332280e+00 0.0000000000e+00 
					0.0000000000e+00 0.0000000000e+00 -1.2004213831e+01 
					3.6843332281e+00 0.0000000000e+00 -1.2004213831e+01 
					3.6843332279e+00 3.6843332279e+00 -1.2004213831e+01 
					0.0000000000e+00 3.6843332280e+00 -1.2004213831e+01 
				</DataArray>
			</PointData>
			<CellData>
				<DataArray type="Float32" Name="Stress (Cauchy)" NumberOfComponents="9" ComponentName0="XX" ComponentName1="XY" ComponentName2="XZ" ComponentName3="YX" ComponentName4="YY" ComponentName5="YZ" ComponentName6="ZX" ComponentName7="ZY" ComponentName8="ZZ" format="ascii">
					-4.3053237785e+00 2.6288849697e-12 7.2519308141e-13
					2.6288849697e-12 -4.3053237785e+00 8.1454055961e-13
					7.2519308141e-13 8.1454055961e-13 1.6036022761e+03
				</DataArray>
				<DataArray type="Float32" Name="Strain (Logarithmic)" NumberOfComponents="9" ComponentName0="XX" ComponentName1="XY" ComponentName2="XZ" ComponentName3="YX" ComponentName4="YY" ComponentName5="YZ" ComponentName6="ZX" ComponentName7="ZY" ComponentName8="ZZ" format="ascii">
					-6.6052496310e-02 0.0000000000e+00 0.0000000000e+00
					0.0000000000e+00 -6.6052496310e-02 0.0000000000e+00
					0.0000000000e+00 0.0000000000e+00 1.3343326976e-01
				</DataArray>
			</CellData>
		</Piece>
	</UnstructuredGrid>
</VTKFile>
