<?xml version="1.0"?>
<VTKFile type="UnstructuredGrid" version="0.1" byte_order="LittleEndian">
	<UnstructuredGrid>
		<Piece NumberOfPoints="8" NumberOfCells="1">
			<Points>
				<DataArray type="Float32" NumberOfComponents="3" format="ascii">
					0.00000000e+00 0.00000000e+00 0.00000000e+00
					5.00000000e-03 0.00000000e+00 0.00000000e+00
					5.00000000e-03 5.00000000e-03 0.00000000e+00
					0.00000000e+00 5.00000000e-03 0.00000000e+00
					0.00000000e+00 0.00000000e+00 5.00000000e-03
					5.00000000e-03 0.00000000e+00 5.00000000e-03
					5.00000000e-03 5.00000000e-03 5.00000000e-03
					0.00000000e+00 5.00000000e-03 5.00000000e-03
				</DataArray>
			</Points>
			<Cells>
				<DataArray type="Int32" Name="connectivity" format="ascii">
					0	1	2	3	4	5	6	7	

				</DataArray>
				<DataArray type="Int32" Name="offsets" format="ascii">
					8
				</DataArray>
				<DataArray type="UInt8" Name="types" format="ascii">
					12
				</DataArray>
			</Cells>
			<PointData>
				<DataArray type="Float32" Name="Displacement" NumberOfComponents="3" ComponentName0="X" ComponentName1="Y" ComponentName2="Z" format="ascii">
					0.0000000000e+00 0.0000000000e+00 0.0000000000e+00 
					-6.7888278977e-05 0.0000000000e+00 0.0000000000e+00 
					-6.7888278977e-05 -6.7888278977e-05 0.0000000000e+00 
					0.0000000000e+00 -6.7888278977e-05 0.0000000000e+00 
					0.0000000000e+00 0.0000000000e+00 1.4017583433e-04 
					-6.7888278977e-05 0.0000000000e+00 1.4017583433e-04 
					-6.7888278977e-05 -6.7888278977e-05 1.4017583433e-04 
					0.0000000000e+00 -6.7888278977e-05 1.4017583433e-04 
				</DataArray>
				<DataArray type="Float32" Name="Velocity" NumberOfComponents="3" ComponentName0="X" ComponentName1="Y" ComponentName2="Z" format="ascii">
					0.0000000000e+00 0.0000000000e+00 0.0000000000e+00 
					-1.4587585214e-02 0.0000000000e+00 0.0000000000e+00 
					-1.4587585214e-02 -1.4587585214e-02 0.0000000000e+00 
					0.0000000000e+00 -1.4587585214e-02 0.0000000000e+00 
					0.0000000000e+00 0.0000000000e+00 3.0705779310e-02 
					-1.4587585214e-02 0.0000000000e+00 3.0705779310e-02 
					-1.4587585214e-02 -1.4587585214e-02 3.0705779310e-02 
					0.0000000000e+00 -1.4587585214e-02 3.0705779310e-02 
				</DataArray>
				<DataArray type="Float32" Name="Acceleration" NumberOfComponents="3" ComponentName0="X" ComponentName1="Y" ComponentName2="Z" format="ascii">
					0.0000000000e+00 0.0000000000e+00 0.0000000000e+00 
					-1.0574312355e+01 0.0000000000e+00 0.0000000000e+00 
					-1.0574312355e+01 -1.0574312355e+01 0.0000000000e+00 
					0.0000000000e+00 -1.0574312355e+01 0.0000000000e+00 
					0.0000000000e+00 0.0000000000e+00 1.9002428484e+01 
					-1.0574312355e+01 0.0000000000e+00 1.9002428484e+01 
					-1.0574312355e+01 -1.0574312355e+01 1.9002428484e+01 
					0.0000000000e+00 -1.0574312355e+01 1.9002428484e+01 
				</DataArray>
			</PointData>
			<CellData>
				<DataArray type="Float32" Name="Stress (Cauchy)" NumberOfComponents="9" ComponentName0="XX" ComponentName1="XY" ComponentName2="XZ" ComponentName3="YX" ComponentName4="YY" ComponentName5="YZ" ComponentName6="ZX" ComponentName7="ZY" ComponentName8="ZZ" format="ascii">
					1.3034406933e+01 -6.7535102025e-13 -1.0731009788e-13
					-6.7535102025e-13 1.3034406933e+01 -4.6039501963e-13
					-1.0731009788e-13 -4.6039501963e-13 3.4361840313e+02
				</DataArray>
				<DataArray type="Float32" Name="Strain (Logarithmic)" NumberOfComponents="9" ComponentName0="XX" ComponentName1="XY" ComponentName2="XZ" ComponentName3="YX" ComponentName4="YY" ComponentName5="YZ" ComponentName6="ZX" ComponentName7="ZY" ComponentName8="ZZ" format="ascii">
					-1.3670675113e-02 0.0000000000e+00 0.0000000000e+00
					0.0000000000e+00 -1.3670675113e-02 0.0000000000e+00
					0.0000000000e+00 0.0000000000e+00 2.7649375462e-02
				</DataArray>
			</CellData>
		</Piece>
	</UnstructuredGrid>
</VTKFile>
