<?xml version="1.0"?>
<VTKFile type="UnstructuredGrid" version="0.1" byte_order="LittleEndian">
	<UnstructuredGrid>
		<Piece NumberOfPoints="8" NumberOfCells="1">
			<Points>
				<DataArray type="Float32" NumberOfComponents="3" format="ascii">
					0.00000000e+00 0.00000000e+00 0.00000000e+00
					5.00000000e-03 0.00000000e+00 0.00000000e+00
					5.00000000e-03 5.00000000e-03 0.00000000e+00
					0.00000000e+00 5.00000000e-03 0.00000000e+00
					0.00000000e+00 0.00000000e+00 5.00000000e-03
					5.00000000e-03 0.00000000e+00 5.00000000e-03
					5.00000000e-03 5.00000000e-03 5.00000000e-03
					0.00000000e+00 5.00000000e-03 5.00000000e-03
				</DataArray>
			</Points>
			<Cells>
				<DataArray type="Int32" Name="connectivity" format="ascii">
					0	1	2	3	4	5	6	7	

				</DataArray>
				<DataArray type="Int32" Name="offsets" format="ascii">
					8
				</DataArray>
				<DataArray type="UInt8" Name="types" format="ascii">
					12
				</DataArray>
			</Cells>
			<PointData>
				<DataArray type="Float32" Name="Displacement" NumberOfComponents="3" ComponentName0="X" ComponentName1="Y" ComponentName2="Z" format="ascii">
					0.0000000000e+00 0.0000000000e+00 0.0000000000e+00 
					-5.5447429609e-04 0.0000000000e+00 0.0000000000e+00 
					-5.5447429609e-04 -5.5447429609e-04 0.0000000000e+00 
					0.0000000000e+00 -5.5447429609e-04 0.0000000000e+00 
					0.0000000000e+00 0.0000000000e+00 1.3403247755e-03 
					-5.5447429609e-04 0.0000000000e+00 1.3403247755e-03 
					-5.5447429609e-04 -5.5447429609e-04 1.3403247755e-03 
					0.0000000000e+00 -5.5447429609e-04 1.3403247755e-03 
				</DataArray>
				<DataArray type="Float32" Name="Velocity" NumberOfComponents="3" ComponentName0="X" ComponentName1="Y" ComponentName2="Z" format="ascii">
					0.0000000000e+00 0.0000000000e+00 0.0000000000e+00 
					-1.5832813092e-02 0.0000000000e+00 0.0000000000e+00 
					-1.5832813092e-02 -1.5832813092e-02 0.0000000000e+00 
					0.0000000000e+00 -1.5832813092e-02 0.0000000000e+00 
					0.0000000000e+00 0.0000000000e+00 4.5481573314e-02 
					-1.5832813092e-02 0.0000000000e+00 4.5481573314e-02 
					-1.5832813092e-02 -1.5832813092e-02 4.5481573314e-02 
					0.0000000000e+00 -1.5832813092e-02 4.5481573314e-02 
				</DataArray>
				<DataArray type="Float32" Name="Acceleration" NumberOfComponents="3" ComponentName0="X" ComponentName1="Y" ComponentName2="Z" format="ascii">
					0.0000000000e+00 0.0000000000e+00 0.0000000000e+00 
					4.5338394971e+00 0.0000000000e+00 0.0000000000e+00 
					4.5338394973e+00 4.5338394972e+00 0.0000000000e+00 
					0.0000000000e+00 4.5338394972e+00 0.0000000000e+00 
					0.0000000000e+00 0.0000000000e+00 -1.6542572608e+01 
					4.5338394971e+00 0.0000000000e+00 -1.6542572608e+01 
					4.5338394972e+00 4.5338394971e+00 -1.6542572608e+01 
					0.0000000000e+00 4.5338394972e+00 -1.6542572608e+01 
				</DataArray>
			</PointData>
			<CellData>
				<DataArray type="Float32" Name="Stress (Cauchy)" NumberOfComponents="9" ComponentName0="XX" ComponentName1="XY" ComponentName2="XZ" ComponentName3="YX" ComponentName4="YY" ComponentName5="YZ" ComponentName6="ZX" ComponentName7="ZY" ComponentName8="ZZ" format="ascii">
					-5.0266834043e+00 -1.9051065428e-12 1.4849418373e-12
					-1.9051065428e-12 -5.0266834043e+00 -6.2865473821e-13
					1.4849418373e-12 -6.2865473821e-13 2.9085691995e+03
				</DataArray>
				<DataArray type="Float32" Name="Strain (Logarithmic)" NumberOfComponents="9" ComponentName0="XX" ComponentName1="XY" ComponentName2="XZ" ComponentName3="YX" ComponentName4="YY" ComponentName5="YZ" ComponentName6="ZX" ComponentName7="ZY" ComponentName8="ZZ" format="ascii">
					-1.1753978187e-01 -6.2434855772e-17 0.0000000000e+00
					0.0000000000e+00 -1.1753978187e-01 0.0000000000e+00
					0.0000000000e+00 0.0000000000e+00 2.3749208113e-01
				</DataArray>
			</CellData>
		</Piece>
	</UnstructuredGrid>
</VTKFile>
