<?xml version="1.0"?>
<VTKFile type="UnstructuredGrid" version="0.1" byte_order="LittleEndian">
	<UnstructuredGrid>
		<Piece NumberOfPoints="8" NumberOfCells="1">
			<Points>
				<DataArray type="Float32" NumberOfComponents="3" format="ascii">
					0.00000000e+00 0.00000000e+00 0.00000000e+00
					5.00000000e-03 0.00000000e+00 0.00000000e+00
					5.00000000e-03 5.00000000e-03 0.00000000e+00
					0.00000000e+00 5.00000000e-03 0.00000000e+00
					0.00000000e+00 0.00000000e+00 5.00000000e-03
					5.00000000e-03 0.00000000e+00 5.00000000e-03
					5.00000000e-03 5.00000000e-03 5.00000000e-03
					0.00000000e+00 5.00000000e-03 5.00000000e-03
				</DataArray>
			</Points>
			<Cells>
				<DataArray type="Int32" Name="connectivity" format="ascii">
					0	1	2	3	4	5	6	7	

				</DataArray>
				<DataArray type="Int32" Name="offsets" format="ascii">
					8
				</DataArray>
				<DataArray type="UInt8" Name="types" format="ascii">
					12
				</DataArray>
			</Cells>
			<PointData>
				<DataArray type="Float32" Name="Displacement" NumberOfComponents="3" ComponentName0="X" ComponentName1="Y" ComponentName2="Z" format="ascii">
					0.0000000000e+00 0.0000000000e+00 0.0000000000e+00 
					-2.5962411436e-04 0.0000000000e+00 0.0000000000e+00 
					-2.5962411436e-04 -2.5962411436e-04 0.0000000000e+00 
					0.0000000000e+00 -2.5962411436e-04 0.0000000000e+00 
					0.0000000000e+00 0.0000000000e+00 5.6881082146e-04 
					-2.5962411436e-04 0.0000000000e+00 5.6881082146e-04 
					-2.5962411436e-04 -2.5962411436e-04 5.6881082146e-04 
					0.0000000000e+00 -2.5962411436e-04 5.6881082146e-04 
				</DataArray>
				<DataArray type="Float32" Name="Velocity" NumberOfComponents="3" ComponentName0="X" ComponentName1="Y" ComponentName2="Z" format="ascii">
					0.0000000000e+00 0.0000000000e+00 0.0000000000e+00 
					-1.2313729794e-02 0.0000000000e+00 0.0000000000e+00 
					-1.2313729794e-02 -1.2313729794e-02 0.0000000000e+00 
					0.0000000000e+00 -1.2313729794e-02 0.0000000000e+00 
					0.0000000000e+00 0.0000000000e+00 2.9081101810e-02 
					-1.2313729794e-02 0.0000000000e+00 2.9081101810e-02 
					-1.2313729794e-02 -1.2313729794e-02 2.9081101810e-02 
					0.0000000000e+00 -1.2313729794e-02 2.9081101810e-02 
				</DataArray>
				<DataArray type="Float32" Name="Acceleration" NumberOfComponents="3" ComponentName0="X" ComponentName1="Y" ComponentName2="Z" format="ascii">
					0.0000000000e+00 0.0000000000e+00 0.0000000000e+00 
					-7.5982583221e+00 0.0000000000e+00 0.0000000000e+00 
					-7.5982583222e+00 -7.5982583221e+00 0.0000000000e+00 
					0.0000000000e+00 -7.5982583221e+00 0.0000000000e+00 
					0.0000000000e+00 0.0000000000e+00 2.1351531206e+01 
					-7.5982583221e+00 0.0000000000e+00 2.1351531206e+01 
					-7.5982583222e+00 -7.5982583221e+00 2.1351531206e+01 
					0.0000000000e+00 -7.5982583221e+00 2.1351531206e+01 
				</DataArray>
			</PointData>
			<CellData>
				<DataArray type="Float32" Name="Stress (Cauchy)" NumberOfComponents="9" ComponentName0="XX" ComponentName1="XY" ComponentName2="XZ" ComponentName3="YX" ComponentName4="YY" ComponentName5="YZ" ComponentName6="ZX" ComponentName7="ZY" ComponentName8="ZZ" format="ascii">
					8.9947444938e+00 1.4264943275e-12 2.9400526043e-13
					1.4264943275e-12 8.9947444938e+00 8.2308229272e-13
					2.9400526043e-13 8.2308229272e-13 1.3035338026e+03
				</DataArray>
				<DataArray type="Float32" Name="Strain (Logarithmic)" NumberOfComponents="9" ComponentName0="XX" ComponentName1="XY" ComponentName2="XZ" ComponentName3="YX" ComponentName4="YY" ComponentName5="YZ" ComponentName6="ZX" ComponentName7="ZY" ComponentName8="ZZ" format="ascii">
					-5.3321479104e-02 0.0000000000e+00 0.0000000000e+00
					0.0000000000e+00 -5.3321479104e-02 0.0000000000e+00
					0.0000000000e+00 0.0000000000e+00 1.0774362167e-01
				</DataArray>
			</CellData>
		</Piece>
	</UnstructuredGrid>
</VTKFile>
