<?xml version="1.0"?>
<VTKFile type="UnstructuredGrid" version="0.1" byte_order="LittleEndian">
	<UnstructuredGrid>
		<Piece NumberOfPoints="8" NumberOfCells="1">
			<Points>
				<DataArray type="Float32" NumberOfComponents="3" format="ascii">
					0.00000000e+00 0.00000000e+00 0.00000000e+00
					5.00000000e-03 0.00000000e+00 0.00000000e+00
					5.00000000e-03 5.00000000e-03 0.00000000e+00
					0.00000000e+00 5.00000000e-03 0.00000000e+00
					0.00000000e+00 0.00000000e+00 5.00000000e-03
					5.00000000e-03 0.00000000e+00 5.00000000e-03
					5.00000000e-03 5.00000000e-03 5.00000000e-03
					0.00000000e+00 5.00000000e-03 5.00000000e-03
				</DataArray>
			</Points>
			<Cells>
				<DataArray type="Int32" Name="connectivity" format="ascii">
					0	1	2	3	4	5	6	7	

				</DataArray>
				<DataArray type="Int32" Name="offsets" format="ascii">
					8
				</DataArray>
				<DataArray type="UInt8" Name="types" format="ascii">
					12
				</DataArray>
			</Cells>
			<PointData>
				<DataArray type="Float32" Name="Displacement" NumberOfComponents="3" ComponentName0="X" ComponentName1="Y" ComponentName2="Z" format="ascii">
					0.0000000000e+00 0.0000000000e+00 0.0000000000e+00 
					-5.7057852129e-05 0.0000000000e+00 0.0000000000e+00 
					-5.7057852129e-05 -5.7057852129e-05 0.0000000000e+00 
					0.0000000000e+00 -5.7057852129e-05 0.0000000000e+00 
					0.0000000000e+00 0.0000000000e+00 1.1733101023e-04 
					-5.7057852129e-05 0.0000000000e+00 1.1733101023e-04 
					-5.7057852129e-05 -5.7057852129e-05 1.1733101023e-04 
					0.0000000000e+00 -5.7057852129e-05 1.1733101023e-04 
				</DataArray>
				<DataArray type="Float32" Name="Velocity" NumberOfComponents="3" ComponentName0="X" ComponentName1="Y" ComponentName2="Z" format="ascii">
					0.0000000000e+00 0.0000000000e+00 0.0000000000e+00 
					-1.4143789918e-03 0.0000000000e+00 0.0000000000e+00 
					-1.4143789918e-03 -1.4143789918e-03 0.0000000000e+00 
					0.0000000000e+00 -1.4143789918e-03 0.0000000000e+00 
					0.0000000000e+00 0.0000000000e+00 3.0317507915e-03 
					-1.4143789918e-03 0.0000000000e+00 3.0317507915e-03 
					-1.4143789918e-03 -1.4143789918e-03 3.0317507915e-03 
					0.0000000000e+00 -1.4143789918e-03 3.0317507915e-03 
				</DataArray>
				<DataArray type="Float32" Name="Acceleration" NumberOfComponents="3" ComponentName0="X" ComponentName1="Y" ComponentName2="Z" format="ascii">
					0.0000000000e+00 0.0000000000e+00 0.0000000000e+00 
					-3.1127055578e+00 0.0000000000e+00 0.0000000000e+00 
					-3.1127055578e+00 -3.1127055578e+00 0.0000000000e+00 
					0.0000000000e+00 -3.1127055579e+00 0.0000000000e+00 
					0.0000000000e+00 0.0000000000e+00 9.5946301817e+00 
					-3.1127055578e+00 0.0000000000e+00 9.5946301817e+00 
					-3.1127055579e+00 -3.1127055578e+00 9.5946301817e+00 
					0.0000000000e+00 -3.1127055579e+00 9.5946301817e+00 
				</DataArray>
			</PointData>
			<CellData>
				<DataArray type="Float32" Name="Stress (Cauchy)" NumberOfComponents="9" ComponentName0="XX" ComponentName1="XY" ComponentName2="XZ" ComponentName3="YX" ComponentName4="YY" ComponentName5="YZ" ComponentName6="ZX" ComponentName7="ZY" ComponentName8="ZZ" format="ascii">
					3.8455549852e+00 8.8204905459e-30 -2.6225295160e-13
					8.8204905459e-30 3.8455549852e+00 2.6273125604e-13
					-2.6225295160e-13 2.6273125604e-13 2.8123116296e+02
				</DataArray>
				<DataArray type="Float32" Name="Strain (Logarithmic)" NumberOfComponents="9" ComponentName0="XX" ComponentName1="XY" ComponentName2="XZ" ComponentName3="YX" ComponentName4="YY" ComponentName5="YZ" ComponentName6="ZX" ComponentName7="ZY" ComponentName8="ZZ" format="ascii">
					-1.1477182027e-02 0.0000000000e+00 0.0000000000e+00
					0.0000000000e+00 -1.1477182027e-02 0.0000000000e+00
					0.0000000000e+00 0.0000000000e+00 2.3195103636e-02
				</DataArray>
			</CellData>
		</Piece>
	</UnstructuredGrid>
</VTKFile>
