<?xml version="1.0"?>
<VTKFile type="UnstructuredGrid" version="0.1" byte_order="LittleEndian">
	<UnstructuredGrid>
		<Piece NumberOfPoints="8" NumberOfCells="1">
			<Points>
				<DataArray type="Float32" NumberOfComponents="3" format="ascii">
					0.00000000e+00 0.00000000e+00 0.00000000e+00
					5.00000000e-03 0.00000000e+00 0.00000000e+00
					5.00000000e-03 5.00000000e-03 0.00000000e+00
					0.00000000e+00 5.00000000e-03 0.00000000e+00
					0.00000000e+00 0.00000000e+00 5.00000000e-03
					5.00000000e-03 0.00000000e+00 5.00000000e-03
					5.00000000e-03 5.00000000e-03 5.00000000e-03
					0.00000000e+00 5.00000000e-03 5.00000000e-03
				</DataArray>
			</Points>
			<Cells>
				<DataArray type="Int32" Name="connectivity" format="ascii">
					0	1	2	3	4	5	6	7	

				</DataArray>
				<DataArray type="Int32" Name="offsets" format="ascii">
					8
				</DataArray>
				<DataArray type="UInt8" Name="types" format="ascii">
					12
				</DataArray>
			</Cells>
			<PointData>
				<DataArray type="Float32" Name="Displacement" NumberOfComponents="3" ComponentName0="X" ComponentName1="Y" ComponentName2="Z" format="ascii">
					0.0000000000e+00 0.0000000000e+00 0.0000000000e+00 
					-1.6125283427e-04 0.0000000000e+00 0.0000000000e+00 
					-1.6125283427e-04 -1.6125283427e-04 0.0000000000e+00 
					0.0000000000e+00 -1.6125283427e-04 0.0000000000e+00 
					0.0000000000e+00 0.0000000000e+00 3.4223149647e-04 
					-1.6125283427e-04 0.0000000000e+00 3.4223149647e-04 
					-1.6125283427e-04 -1.6125283427e-04 3.4223149647e-04 
					0.0000000000e+00 -1.6125283427e-04 3.4223149647e-04 
				</DataArray>
				<DataArray type="Float32" Name="Velocity" NumberOfComponents="3" ComponentName0="X" ComponentName1="Y" ComponentName2="Z" format="ascii">
					0.0000000000e+00 0.0000000000e+00 0.0000000000e+00 
					-1.7644920179e-02 0.0000000000e+00 0.0000000000e+00 
					-1.7644920179e-02 -1.7644920179e-02 0.0000000000e+00 
					0.0000000000e+00 -1.7644920179e-02 0.0000000000e+00 
					0.0000000000e+00 0.0000000000e+00 3.9451121880e-02 
					-1.7644920179e-02 0.0000000000e+00 3.9451121880e-02 
					-1.7644920179e-02 -1.7644920179e-02 3.9451121880e-02 
					0.0000000000e+00 -1.7644920179e-02 3.9451121880e-02 
				</DataArray>
				<DataArray type="Float32" Name="Acceleration" NumberOfComponents="3" ComponentName0="X" ComponentName1="Y" ComponentName2="Z" format="ascii">
					0.0000000000e+00 0.0000000000e+00 0.0000000000e+00 
					6.3990720021e+00 0.0000000000e+00 0.0000000000e+00 
					6.3990720021e+00 6.3990720021e+00 0.0000000000e+00 
					0.0000000000e+00 6.3990720021e+00 0.0000000000e+00 
					0.0000000000e+00 0.0000000000e+00 -1.3367316184e+01 
					6.3990720020e+00 0.0000000000e+00 -1.3367316184e+01 
					6.3990720020e+00 6.3990720020e+00 -1.3367316184e+01 
					0.0000000000e+00 6.3990720020e+00 -1.3367316184e+01 
				</DataArray>
			</PointData>
			<CellData>
				<DataArray type="Float32" Name="Stress (Cauchy)" NumberOfComponents="9" ComponentName0="XX" ComponentName1="XY" ComponentName2="XZ" ComponentName3="YX" ComponentName4="YY" ComponentName5="YZ" ComponentName6="ZX" ComponentName7="ZY" ComponentName8="ZZ" format="ascii">
					-7.7359095832e+00 -2.9442697637e-13 6.0182030791e-13
					-2.9442697637e-13 -7.7359095832e+00 4.8493286067e-13
					6.0182030791e-13 4.8493286067e-13 7.8538183246e+02
				</DataArray>
				<DataArray type="Float32" Name="Strain (Logarithmic)" NumberOfComponents="9" ComponentName0="XX" ComponentName1="XY" ComponentName2="XZ" ComponentName3="YX" ComponentName4="YY" ComponentName5="YZ" ComponentName6="ZX" ComponentName7="ZY" ComponentName8="ZZ" format="ascii">
					-3.2782075268e-02 0.0000000000e+00 0.0000000000e+00
					0.0000000000e+00 -3.2782075268e-02 0.0000000000e+00
					0.0000000000e+00 0.0000000000e+00 6.6205536482e-02
				</DataArray>
			</CellData>
		</Piece>
	</UnstructuredGrid>
</VTKFile>
