<?xml version="1.0"?>
<VTKFile type="UnstructuredGrid" version="0.1" byte_order="LittleEndian">
	<UnstructuredGrid>
		<Piece NumberOfPoints="8" NumberOfCells="1">
			<Points>
				<DataArray type="Float32" NumberOfComponents="3" format="ascii">
					0.00000000e+00 0.00000000e+00 0.00000000e+00
					5.00000000e-03 0.00000000e+00 0.00000000e+00
					5.00000000e-03 5.00000000e-03 0.00000000e+00
					0.00000000e+00 5.00000000e-03 0.00000000e+00
					0.00000000e+00 0.00000000e+00 5.00000000e-03
					5.00000000e-03 0.00000000e+00 5.00000000e-03
					5.00000000e-03 5.00000000e-03 5.00000000e-03
					0.00000000e+00 5.00000000e-03 5.00000000e-03
				</DataArray>
			</Points>
			<Cells>
				<DataArray type="Int32" Name="connectivity" format="ascii">
					0	1	2	3	4	5	6	7	

				</DataArray>
				<DataArray type="Int32" Name="offsets" format="ascii">
					8
				</DataArray>
				<DataArray type="UInt8" Name="types" format="ascii">
					12
				</DataArray>
			</Cells>
			<PointData>
				<DataArray type="Float32" Name="Displacement" NumberOfComponents="3" ComponentName0="X" ComponentName1="Y" ComponentName2="Z" format="ascii">
					0.0000000000e+00 0.0000000000e+00 0.0000000000e+00 
					-1.8015728438e-04 0.0000000000e+00 0.0000000000e+00 
					-1.8015728438e-04 -1.8015728438e-04 0.0000000000e+00 
					0.0000000000e+00 -1.8015728438e-04 0.0000000000e+00 
					0.0000000000e+00 0.0000000000e+00 3.8468553233e-04 
					-1.8015728438e-04 0.0000000000e+00 3.8468553233e-04 
					-1.8015728438e-04 -1.8015728438e-04 3.8468553233e-04 
					0.0000000000e+00 -1.8015728438e-04 3.8468553233e-04 
				</DataArray>
				<DataArray type="Float32" Name="Velocity" NumberOfComponents="3" ComponentName0="X" ComponentName1="Y" ComponentName2="Z" format="ascii">
					0.0000000000e+00 0.0000000000e+00 0.0000000000e+00 
					-2.7093490574e-03 0.0000000000e+00 0.0000000000e+00 
					-2.7093490574e-03 -2.7093490574e-03 0.0000000000e+00 
					0.0000000000e+00 -2.7093490574e-03 0.0000000000e+00 
					0.0000000000e+00 0.0000000000e+00 6.1187804251e-03 
					-2.7093490574e-03 0.0000000000e+00 6.1187804251e-03 
					-2.7093490574e-03 -2.7093490574e-03 6.1187804251e-03 
					0.0000000000e+00 -2.7093490574e-03 6.1187804251e-03 
				</DataArray>
				<DataArray type="Float32" Name="Acceleration" NumberOfComponents="3" ComponentName0="X" ComponentName1="Y" ComponentName2="Z" format="ascii">
					0.0000000000e+00 0.0000000000e+00 0.0000000000e+00 
					4.0634991363e+00 0.0000000000e+00 0.0000000000e+00 
					4.0634991362e+00 4.0634991363e+00 0.0000000000e+00 
					0.0000000000e+00 4.0634991362e+00 0.0000000000e+00 
					0.0000000000e+00 0.0000000000e+00 -6.2832356897e+00 
					4.0634991362e+00 0.0000000000e+00 -6.2832356896e+00 
					4.0634991362e+00 4.0634991363e+00 -6.2832356896e+00 
					0.0000000000e+00 4.0634991361e+00 -6.2832356898e+00 
				</DataArray>
			</PointData>
			<CellData>
				<DataArray type="Float32" Name="Stress (Cauchy)" NumberOfComponents="9" ComponentName0="XX" ComponentName1="XY" ComponentName2="XZ" ComponentName3="YX" ComponentName4="YY" ComponentName5="YZ" ComponentName6="ZX" ComponentName7="ZY" ComponentName8="ZZ" format="ascii">
					-4.8927945700e+00 -7.7896723920e-13 -5.2016047526e-13
					-7.7896723920e-13 -4.8927945700e+00 7.5552985179e-13
					-5.2016047526e-13 7.5552985179e-13 8.8342321270e+02
				</DataArray>
				<DataArray type="Float32" Name="Strain (Logarithmic)" NumberOfComponents="9" ComponentName0="XX" ComponentName1="XY" ComponentName2="XZ" ComponentName3="YX" ComponentName4="YY" ComponentName5="YZ" ComponentName6="ZX" ComponentName7="ZY" ComponentName8="ZZ" format="ascii">
					-3.6696616518e-02 0.0000000000e+00 0.0000000000e+00
					0.0000000000e+00 -3.6696616518e-02 0.0000000000e+00
					0.0000000000e+00 0.0000000000e+00 7.4120999502e-02
				</DataArray>
			</CellData>
		</Piece>
	</UnstructuredGrid>
</VTKFile>
