<?xml version="1.0"?>
<VTKFile type="UnstructuredGrid" version="0.1" byte_order="LittleEndian">
	<UnstructuredGrid>
		<Piece NumberOfPoints="8" NumberOfCells="1">
			<Points>
				<DataArray type="Float32" NumberOfComponents="3" format="ascii">
					0.00000000e+00 0.00000000e+00 0.00000000e+00
					5.00000000e-03 0.00000000e+00 0.00000000e+00
					5.00000000e-03 5.00000000e-03 0.00000000e+00
					0.00000000e+00 5.00000000e-03 0.00000000e+00
					0.00000000e+00 0.00000000e+00 5.00000000e-03
					5.00000000e-03 0.00000000e+00 5.00000000e-03
					5.00000000e-03 5.00000000e-03 5.00000000e-03
					0.00000000e+00 5.00000000e-03 5.00000000e-03
				</DataArray>
			</Points>
			<Cells>
				<DataArray type="Int32" Name="connectivity" format="ascii">
					0	1	2	3	4	5	6	7	

				</DataArray>
				<DataArray type="Int32" Name="offsets" format="ascii">
					8
				</DataArray>
				<DataArray type="UInt8" Name="types" format="ascii">
					12
				</DataArray>
			</Cells>
			<PointData>
				<DataArray type="Float32" Name="Displacement" NumberOfComponents="3" ComponentName0="X" ComponentName1="Y" ComponentName2="Z" format="ascii">
					0.0000000000e+00 0.0000000000e+00 0.0000000000e+00 
					-3.5358959695e-04 0.0000000000e+00 0.0000000000e+00 
					-3.5358959695e-04 -3.5358959695e-04 0.0000000000e+00 
					0.0000000000e+00 -3.5358959695e-04 0.0000000000e+00 
					0.0000000000e+00 0.0000000000e+00 7.9864179014e-04 
					-3.5358959695e-04 0.0000000000e+00 7.9864179014e-04 
					-3.5358959695e-04 -3.5358959695e-04 7.9864179014e-04 
					0.0000000000e+00 -3.5358959695e-04 7.9864179014e-04 
				</DataArray>
				<DataArray type="Float32" Name="Velocity" NumberOfComponents="3" ComponentName0="X" ComponentName1="Y" ComponentName2="Z" format="ascii">
					0.0000000000e+00 0.0000000000e+00 0.0000000000e+00 
					-1.9612192694e-02 0.0000000000e+00 0.0000000000e+00 
					-1.9612192694e-02 -1.9612192694e-02 0.0000000000e+00 
					0.0000000000e+00 -1.9612192694e-02 0.0000000000e+00 
					0.0000000000e+00 0.0000000000e+00 4.9168945156e-02 
					-1.9612192694e-02 0.0000000000e+00 4.9168945156e-02 
					-1.9612192694e-02 -1.9612192694e-02 4.9168945156e-02 
					0.0000000000e+00 -1.9612192694e-02 4.9168945156e-02 
				</DataArray>
				<DataArray type="Float32" Name="Acceleration" NumberOfComponents="3" ComponentName0="X" ComponentName1="Y" ComponentName2="Z" format="ascii">
					0.0000000000e+00 0.0000000000e+00 0.0000000000e+00 
					-3.5326106418e+00 0.0000000000e+00 0.0000000000e+00 
					-3.5326106418e+00 -3.5326106417e+00 0.0000000000e+00 
					0.0000000000e+00 -3.5326106418e+00 0.0000000000e+00 
					0.0000000000e+00 0.0000000000e+00 6.5286242820e+00 
					-3.5326106418e+00 0.0000000000e+00 6.5286242820e+00 
					-3.5326106418e+00 -3.5326106418e+00 6.5286242820e+00 
					0.0000000000e+00 -3.5326106419e+00 6.5286242819e+00 
				</DataArray>
			</PointData>
			<CellData>
				<DataArray type="Float32" Name="Stress (Cauchy)" NumberOfComponents="9" ComponentName0="XX" ComponentName1="XY" ComponentName2="XZ" ComponentName3="YX" ComponentName4="YY" ComponentName5="YZ" ComponentName6="ZX" ComponentName7="ZY" ComponentName8="ZZ" format="ascii">
					4.0973394613e+00 -6.9342295342e-13 3.8242761513e-13
					-6.9342295342e-13 4.0973394613e+00 9.2435347810e-13
					3.8242761513e-13 9.2435347810e-13 1.7930466602e+03
				</DataArray>
				<DataArray type="Float32" Name="Strain (Logarithmic)" NumberOfComponents="9" ComponentName0="XX" ComponentName1="XY" ComponentName2="XZ" ComponentName3="YX" ComponentName4="YY" ComponentName5="YZ" ComponentName6="ZX" ComponentName7="ZY" ComponentName8="ZZ" format="ascii">
					-7.3342947279e-02 0.0000000000e+00 0.0000000000e+00
					0.0000000000e+00 -7.3342947279e-02 0.0000000000e+00
					0.0000000000e+00 0.0000000000e+00 1.4818580358e-01
				</DataArray>
			</CellData>
		</Piece>
	</UnstructuredGrid>
</VTKFile>
