<?xml version="1.0"?>
<VTKFile type="UnstructuredGrid" version="0.1" byte_order="LittleEndian">
	<UnstructuredGrid>
		<Piece NumberOfPoints="8" NumberOfCells="1">
			<Points>
				<DataArray type="Float32" NumberOfComponents="3" format="ascii">
					0.00000000e+00 0.00000000e+00 0.00000000e+00
					5.00000000e-03 0.00000000e+00 0.00000000e+00
					5.00000000e-03 5.00000000e-03 0.00000000e+00
					0.00000000e+00 5.00000000e-03 0.00000000e+00
					0.00000000e+00 0.00000000e+00 5.00000000e-03
					5.00000000e-03 0.00000000e+00 5.00000000e-03
					5.00000000e-03 5.00000000e-03 5.00000000e-03
					0.00000000e+00 5.00000000e-03 5.00000000e-03
				</DataArray>
			</Points>
			<Cells>
				<DataArray type="Int32" Name="connectivity" format="ascii">
					0	1	2	3	4	5	6	7	

				</DataArray>
				<DataArray type="Int32" Name="offsets" format="ascii">
					8
				</DataArray>
				<DataArray type="UInt8" Name="types" format="ascii">
					12
				</DataArray>
			</Cells>
			<PointData>
				<DataArray type="Float32" Name="Displacement" NumberOfComponents="3" ComponentName0="X" ComponentName1="Y" ComponentName2="Z" format="ascii">
					0.0000000000e+00 0.0000000000e+00 0.0000000000e+00 
					-9.5337914210e-05 0.0000000000e+00 0.0000000000e+00 
					-9.5337914210e-05 -9.5337914210e-05 0.0000000000e+00 
					0.0000000000e+00 -9.5337914210e-05 0.0000000000e+00 
					0.0000000000e+00 0.0000000000e+00 1.9818876571e-04 
					-9.5337914210e-05 0.0000000000e+00 1.9818876571e-04 
					-9.5337914210e-05 -9.5337914210e-05 1.9818876571e-04 
					0.0000000000e+00 -9.5337914210e-05 1.9818876571e-04 
				</DataArray>
				<DataArray type="Float32" Name="Velocity" NumberOfComponents="3" ComponentName0="X" ComponentName1="Y" ComponentName2="Z" format="ascii">
					0.0000000000e+00 0.0000000000e+00 0.0000000000e+00 
					-1.8772576018e-02 0.0000000000e+00 0.0000000000e+00 
					-1.8772576018e-02 -1.8772576018e-02 0.0000000000e+00 
					0.0000000000e+00 -1.8772576018e-02 0.0000000000e+00 
					0.0000000000e+00 0.0000000000e+00 3.9962989198e-02 
					-1.8772576018e-02 0.0000000000e+00 3.9962989198e-02 
					-1.8772576018e-02 -1.8772576018e-02 3.9962989198e-02 
					0.0000000000e+00 -1.8772576018e-02 3.9962989198e-02 
				</DataArray>
				<DataArray type="Float32" Name="Acceleration" NumberOfComponents="3" ComponentName0="X" ComponentName1="Y" ComponentName2="Z" format="ascii">
					0.0000000000e+00 0.0000000000e+00 0.0000000000e+00 
					6.0903461526e+00 0.0000000000e+00 0.0000000000e+00 
					6.0903461525e+00 6.0903461525e+00 0.0000000000e+00 
					0.0000000000e+00 6.0903461526e+00 0.0000000000e+00 
					0.0000000000e+00 0.0000000000e+00 -9.0586711228e+00 
					6.0903461526e+00 0.0000000000e+00 -9.0586711229e+00 
					6.0903461526e+00 6.0903461525e+00 -9.0586711229e+00 
					0.0000000000e+00 6.0903461526e+00 -9.0586711229e+00 
				</DataArray>
			</PointData>
			<CellData>
				<DataArray type="Float32" Name="Stress (Cauchy)" NumberOfComponents="9" ComponentName0="XX" ComponentName1="XY" ComponentName2="XZ" ComponentName3="YX" ComponentName4="YY" ComponentName5="YZ" ComponentName6="ZX" ComponentName7="ZY" ComponentName8="ZZ" format="ascii">
					-7.4650180303e+00 6.8287973582e-13 4.1133779628e-13
					6.8287973582e-13 -7.4650180303e+00 9.9182158291e-14
					4.1133779628e-13 9.9182158291e-14 4.5770495042e+02
				</DataArray>
				<DataArray type="Float32" Name="Strain (Logarithmic)" NumberOfComponents="9" ComponentName0="XX" ComponentName1="XY" ComponentName2="XZ" ComponentName3="YX" ComponentName4="YY" ComponentName5="YZ" ComponentName6="ZX" ComponentName7="ZY" ComponentName8="ZZ" format="ascii">
					-1.9251713576e-02 0.0000000000e+00 0.0000000000e+00
					0.0000000000e+00 -1.9251713576e-02 0.0000000000e+00
					0.0000000000e+00 0.0000000000e+00 3.8872338191e-02
				</DataArray>
			</CellData>
		</Piece>
	</UnstructuredGrid>
</VTKFile>
