<?xml version="1.0"?>
<VTKFile type="UnstructuredGrid" version="0.1" byte_order="LittleEndian">
	<UnstructuredGrid>
		<Piece NumberOfPoints="8" NumberOfCells="1">
			<Points>
				<DataArray type="Float32" NumberOfComponents="3" format="ascii">
					0.00000000e+00 0.00000000e+00 0.00000000e+00
					5.00000000e-03 0.00000000e+00 0.00000000e+00
					5.00000000e-03 5.00000000e-03 0.00000000e+00
					0.00000000e+00 5.00000000e-03 0.00000000e+00
					0.00000000e+00 0.00000000e+00 5.00000000e-03
					5.00000000e-03 0.00000000e+00 5.00000000e-03
					5.00000000e-03 5.00000000e-03 5.00000000e-03
					0.00000000e+00 5.00000000e-03 5.00000000e-03
				</DataArray>
			</Points>
			<Cells>
				<DataArray type="Int32" Name="connectivity" format="ascii">
					0	1	2	3	4	5	6	7	

				</DataArray>
				<DataArray type="Int32" Name="offsets" format="ascii">
					8
				</DataArray>
				<DataArray type="UInt8" Name="types" format="ascii">
					12
				</DataArray>
			</Cells>
			<PointData>
				<DataArray type="Float32" Name="Displacement" NumberOfComponents="3" ComponentName0="X" ComponentName1="Y" ComponentName2="Z" format="ascii">
					0.0000000000e+00 0.0000000000e+00 0.0000000000e+00 
					-3.1627716446e-04 0.0000000000e+00 0.0000000000e+00 
					-3.1627716446e-04 -3.1627716446e-04 0.0000000000e+00 
					0.0000000000e+00 -3.1627716446e-04 0.0000000000e+00 
					0.0000000000e+00 0.0000000000e+00 7.0549414910e-04 
					-3.1627716446e-04 0.0000000000e+00 7.0549414910e-04 
					-3.1627716446e-04 -3.1627716446e-04 7.0549414910e-04 
					0.0000000000e+00 -3.1627716446e-04 7.0549414910e-04 
				</DataArray>
				<DataArray type="Float32" Name="Velocity" NumberOfComponents="3" ComponentName0="X" ComponentName1="Y" ComponentName2="Z" format="ascii">
					0.0000000000e+00 0.0000000000e+00 0.0000000000e+00 
					-8.2231885883e-03 0.0000000000e+00 0.0000000000e+00 
					-8.2231885883e-03 -8.2231885883e-03 0.0000000000e+00 
					0.0000000000e+00 -8.2231885883e-03 0.0000000000e+00 
					0.0000000000e+00 0.0000000000e+00 2.0527873780e-02 
					-8.2231885883e-03 0.0000000000e+00 2.0527873780e-02 
					-8.2231885883e-03 -8.2231885883e-03 2.0527873780e-02 
					0.0000000000e+00 -8.2231885883e-03 2.0527873780e-02 
				</DataArray>
				<DataArray type="Float32" Name="Acceleration" NumberOfComponents="3" ComponentName0="X" ComponentName1="Y" ComponentName2="Z" format="ascii">
					0.0000000000e+00 0.0000000000e+00 0.0000000000e+00 
					7.5315961789e+00 0.0000000000e+00 0.0000000000e+00 
					7.5315961790e+00 7.5315961790e+00 0.0000000000e+00 
					0.0000000000e+00 7.5315961789e+00 0.0000000000e+00 
					0.0000000000e+00 0.0000000000e+00 -1.7164785871e+01 
					7.5315961789e+00 0.0000000000e+00 -1.7164785870e+01 
					7.5315961790e+00 7.5315961790e+00 -1.7164785870e+01 
					0.0000000000e+00 7.5315961789e+00 -1.7164785871e+01 
				</DataArray>
			</PointData>
			<CellData>
				<DataArray type="Float32" Name="Stress (Cauchy)" NumberOfComponents="9" ComponentName0="XX" ComponentName1="XY" ComponentName2="XZ" ComponentName3="YX" ComponentName4="YY" ComponentName5="YZ" ComponentName6="ZX" ComponentName7="ZY" ComponentName8="ZZ" format="ascii">
					-8.8074988768e+00 -2.7907600736e-12 -8.4874172266e-13
					-2.7907600736e-12 -8.8074988768e+00 -5.4509505020e-13
					-8.4874172266e-13 -5.4509505020e-13 1.5815154366e+03
				</DataArray>
				<DataArray type="Float32" Name="Strain (Logarithmic)" NumberOfComponents="9" ComponentName0="XX" ComponentName1="XY" ComponentName2="XZ" ComponentName3="YX" ComponentName4="YY" ComponentName5="YZ" ComponentName6="ZX" ComponentName7="ZY" ComponentName8="ZZ" format="ascii">
					-6.5344641050e-02 0.0000000000e+00 0.0000000000e+00
					0.0000000000e+00 -6.5344641050e-02 0.0000000000e+00
					0.0000000000e+00 0.0000000000e+00 1.3199168397e-01
				</DataArray>
			</CellData>
		</Piece>
	</UnstructuredGrid>
</VTKFile>
