<?xml version="1.0"?>
<VTKFile type="UnstructuredGrid" version="0.1" byte_order="LittleEndian">
	<UnstructuredGrid>
		<Piece NumberOfPoints="8" NumberOfCells="1">
			<Points>
				<DataArray type="Float32" NumberOfComponents="3" format="ascii">
					0.00000000e+00 0.00000000e+00 0.00000000e+00
					5.00000000e-03 0.00000000e+00 0.00000000e+00
					5.00000000e-03 5.00000000e-03 0.00000000e+00
					0.00000000e+00 5.00000000e-03 0.00000000e+00
					0.00000000e+00 0.00000000e+00 5.00000000e-03
					5.00000000e-03 0.00000000e+00 5.00000000e-03
					5.00000000e-03 5.00000000e-03 5.00000000e-03
					0.00000000e+00 5.00000000e-03 5.00000000e-03
				</DataArray>
			</Points>
			<Cells>
				<DataArray type="Int32" Name="connectivity" format="ascii">
					0	1	2	3	4	5	6	7	

				</DataArray>
				<DataArray type="Int32" Name="offsets" format="ascii">
					8
				</DataArray>
				<DataArray type="UInt8" Name="types" format="ascii">
					12
				</DataArray>
			</Cells>
			<PointData>
				<DataArray type="Float32" Name="Displacement" NumberOfComponents="3" ComponentName0="X" ComponentName1="Y" ComponentName2="Z" format="ascii">
					0.0000000000e+00 0.0000000000e+00 0.0000000000e+00 
					-1.1702443810e-04 0.0000000000e+00 0.0000000000e+00 
					-1.1702443810e-04 -1.1702443810e-04 0.0000000000e+00 
					0.0000000000e+00 -1.1702443810e-04 0.0000000000e+00 
					0.0000000000e+00 0.0000000000e+00 2.4503140475e-04 
					-1.1702443810e-04 0.0000000000e+00 2.4503140475e-04 
					-1.1702443810e-04 -1.1702443810e-04 2.4503140475e-04 
					0.0000000000e+00 -1.1702443810e-04 2.4503140475e-04 
				</DataArray>
				<DataArray type="Float32" Name="Velocity" NumberOfComponents="3" ComponentName0="X" ComponentName1="Y" ComponentName2="Z" format="ascii">
					0.0000000000e+00 0.0000000000e+00 0.0000000000e+00 
					-1.4409693287e-03 0.0000000000e+00 0.0000000000e+00 
					-1.4409693287e-03 -1.4409693287e-03 0.0000000000e+00 
					0.0000000000e+00 -1.4409693287e-03 0.0000000000e+00 
					0.0000000000e+00 0.0000000000e+00 3.1535233329e-03 
					-1.4409693287e-03 0.0000000000e+00 3.1535233329e-03 
					-1.4409693287e-03 -1.4409693287e-03 3.1535233329e-03 
					0.0000000000e+00 -1.4409693287e-03 3.1535233329e-03 
				</DataArray>
				<DataArray type="Float32" Name="Acceleration" NumberOfComponents="3" ComponentName0="X" ComponentName1="Y" ComponentName2="Z" format="ascii">
					0.0000000000e+00 0.0000000000e+00 0.0000000000e+00 
					-2.9215486833e-03 0.0000000000e+00 0.0000000000e+00 
					-2.9215486845e-03 -2.9215486115e-03 0.0000000000e+00 
					0.0000000000e+00 -2.9215487543e-03 0.0000000000e+00 
					0.0000000000e+00 0.0000000000e+00 2.6719786710e+00 
					-2.9215487289e-03 0.0000000000e+00 2.6719786712e+00 
					-2.9215486797e-03 -2.9215486457e-03 2.6719786712e+00 
					0.0000000000e+00 -2.9215487636e-03 2.6719786711e+00 
				</DataArray>
			</PointData>
			<CellData>
				<DataArray type="Float32" Name="Stress (Cauchy)" NumberOfComponents="9" ComponentName0="XX" ComponentName1="XY" ComponentName2="XZ" ComponentName3="YX" ComponentName4="YY" ComponentName5="YZ" ComponentName6="ZX" ComponentName7="ZY" ComponentName8="ZZ" format="ascii">
					3.5647617788e-03 -1.5428432825e-12 -8.1307101137e-13
					-1.5428432825e-12 3.5647617779e-03 1.1781701990e-14
					-8.1307101137e-13 1.1781701990e-14 5.7259275319e+02
				</DataArray>
				<DataArray type="Float32" Name="Strain (Logarithmic)" NumberOfComponents="9" ComponentName0="XX" ComponentName1="XY" ComponentName2="XZ" ComponentName3="YX" ComponentName4="YY" ComponentName5="YZ" ComponentName6="ZX" ComponentName7="ZY" ComponentName8="ZZ" format="ascii">
					-2.3683132097e-02 0.0000000000e+00 0.0000000000e+00
					0.0000000000e+00 -2.3683132097e-02 0.0000000000e+00
					0.0000000000e+00 0.0000000000e+00 4.7843316955e-02
				</DataArray>
			</CellData>
		</Piece>
	</UnstructuredGrid>
</VTKFile>
