<?xml version="1.0"?>
<VTKFile type="UnstructuredGrid" version="0.1" byte_order="LittleEndian">
	<UnstructuredGrid>
		<Piece NumberOfPoints="8" NumberOfCells="1">
			<Points>
				<DataArray type="Float32" NumberOfComponents="3" format="ascii">
					0.00000000e+00 0.00000000e+00 0.00000000e+00
					5.00000000e-03 0.00000000e+00 0.00000000e+00
					5.00000000e-03 5.00000000e-03 0.00000000e+00
					0.00000000e+00 5.00000000e-03 0.00000000e+00
					0.00000000e+00 0.00000000e+00 5.00000000e-03
					5.00000000e-03 0.00000000e+00 5.00000000e-03
					5.00000000e-03 5.00000000e-03 5.00000000e-03
					0.00000000e+00 5.00000000e-03 5.00000000e-03
				</DataArray>
			</Points>
			<Cells>
				<DataArray type="Int32" Name="connectivity" format="ascii">
					0	1	2	3	4	5	6	7	

				</DataArray>
				<DataArray type="Int32" Name="offsets" format="ascii">
					8
				</DataArray>
				<DataArray type="UInt8" Name="types" format="ascii">
					12
				</DataArray>
			</Cells>
			<PointData>
				<DataArray type="Float32" Name="Displacement" NumberOfComponents="3" ComponentName0="X" ComponentName1="Y" ComponentName2="Z" format="ascii">
					0.0000000000e+00 0.0000000000e+00 0.0000000000e+00 
					-6.1631988313e-05 0.0000000000e+00 0.0000000000e+00 
					-6.1631988313e-05 -6.1631988313e-05 0.0000000000e+00 
					0.0000000000e+00 -6.1631988313e-05 0.0000000000e+00 
					0.0000000000e+00 0.0000000000e+00 1.2702368935e-04 
					-6.1631988313e-05 0.0000000000e+00 1.2702368935e-04 
					-6.1631988313e-05 -6.1631988313e-05 1.2702368935e-04 
					0.0000000000e+00 -6.1631988313e-05 1.2702368935e-04 
				</DataArray>
				<DataArray type="Float32" Name="Velocity" NumberOfComponents="3" ComponentName0="X" ComponentName1="Y" ComponentName2="Z" format="ascii">
					0.0000000000e+00 0.0000000000e+00 0.0000000000e+00 
					-9.1492770629e-03 0.0000000000e+00 0.0000000000e+00 
					-9.1492770629e-03 -9.1492770629e-03 0.0000000000e+00 
					0.0000000000e+00 -9.1492770629e-03 0.0000000000e+00 
					0.0000000000e+00 0.0000000000e+00 1.9404941004e-02 
					-9.1492770629e-03 0.0000000000e+00 1.9404941004e-02 
					-9.1492770629e-03 -9.1492770629e-03 1.9404941004e-02 
					0.0000000000e+00 -9.1492770629e-03 1.9404941004e-02 
				</DataArray>
				<DataArray type="Float32" Name="Acceleration" NumberOfComponents="3" ComponentName0="X" ComponentName1="Y" ComponentName2="Z" format="ascii">
					0.0000000000e+00 0.0000000000e+00 0.0000000000e+00 
					-1.0209029657e+01 0.0000000000e+00 0.0000000000e+00 
					-1.0209029657e+01 -1.0209029657e+01 0.0000000000e+00 
					0.0000000000e+00 -1.0209029657e+01 0.0000000000e+00 
					0.0000000000e+00 0.0000000000e+00 2.2474619902e+01 
					-1.0209029657e+01 0.0000000000e+00 2.2474619902e+01 
					-1.0209029657e+01 -1.0209029657e+01 2.2474619902e+01 
					0.0000000000e+00 -1.0209029657e+01 2.2474619902e+01 
				</DataArray>
			</PointData>
			<CellData>
				<DataArray type="Float32" Name="Stress (Cauchy)" NumberOfComponents="9" ComponentName0="XX" ComponentName1="XY" ComponentName2="XZ" ComponentName3="YX" ComponentName4="YY" ComponentName5="YZ" ComponentName6="ZX" ComponentName7="ZY" ComponentName8="ZZ" format="ascii">
					1.2600440043e+01 4.3208116687e-13 8.1863785216e-14
					4.3208116687e-13 1.2600440043e+01 5.1826811938e-13
					8.1863785216e-14 5.1826811938e-13 3.1253290386e+02
				</DataArray>
				<DataArray type="Float32" Name="Strain (Logarithmic)" NumberOfComponents="9" ComponentName0="XX" ComponentName1="XY" ComponentName2="XZ" ComponentName3="YX" ComponentName4="YY" ComponentName5="YZ" ComponentName6="ZX" ComponentName7="ZY" ComponentName8="ZZ" format="ascii">
					-1.2402997822e-02 0.0000000000e+00 0.0000000000e+00
					0.0000000000e+00 -1.2402997822e-02 0.0000000000e+00
					0.0000000000e+00 0.0000000000e+00 2.5087400867e-02
				</DataArray>
			</CellData>
		</Piece>
	</UnstructuredGrid>
</VTKFile>
