<?xml version="1.0"?>
<VTKFile type="UnstructuredGrid" version="0.1" byte_order="LittleEndian">
	<UnstructuredGrid>
		<Piece NumberOfPoints="8" NumberOfCells="1">
			<Points>
				<DataArray type="Float32" NumberOfComponents="3" format="ascii">
					0.00000000e+00 0.00000000e+00 0.00000000e+00
					5.00000000e-03 0.00000000e+00 0.00000000e+00
					5.00000000e-03 5.00000000e-03 0.00000000e+00
					0.00000000e+00 5.00000000e-03 0.00000000e+00
					0.00000000e+00 0.00000000e+00 5.00000000e-03
					5.00000000e-03 0.00000000e+00 5.00000000e-03
					5.00000000e-03 5.00000000e-03 5.00000000e-03
					0.00000000e+00 5.00000000e-03 5.00000000e-03
				</DataArray>
			</Points>
			<Cells>
				<DataArray type="Int32" Name="connectivity" format="ascii">
					0	1	2	3	4	5	6	7	

				</DataArray>
				<DataArray type="Int32" Name="offsets" format="ascii">
					8
				</DataArray>
				<DataArray type="UInt8" Name="types" format="ascii">
					12
				</DataArray>
			</Cells>
			<PointData>
				<DataArray type="Float32" Name="Displacement" NumberOfComponents="3" ComponentName0="X" ComponentName1="Y" ComponentName2="Z" format="ascii">
					0.0000000000e+00 0.0000000000e+00 0.0000000000e+00 
					-3.2644831405e-04 0.0000000000e+00 0.0000000000e+00 
					-3.2644831405e-04 -3.2644831405e-04 0.0000000000e+00 
					0.0000000000e+00 -3.2644831405e-04 0.0000000000e+00 
					0.0000000000e+00 0.0000000000e+00 7.3082204478e-04 
					-3.2644831405e-04 0.0000000000e+00 7.3082204478e-04 
					-3.2644831405e-04 -3.2644831405e-04 7.3082204478e-04 
					0.0000000000e+00 -3.2644831405e-04 7.3082204478e-04 
				</DataArray>
				<DataArray type="Float32" Name="Velocity" NumberOfComponents="3" ComponentName0="X" ComponentName1="Y" ComponentName2="Z" format="ascii">
					0.0000000000e+00 0.0000000000e+00 0.0000000000e+00 
					-6.6933252970e-03 0.0000000000e+00 0.0000000000e+00 
					-6.6933252970e-03 -6.6933252970e-03 0.0000000000e+00 
					0.0000000000e+00 -6.6933252970e-03 0.0000000000e+00 
					0.0000000000e+00 0.0000000000e+00 1.6555586676e-02 
					-6.6933252970e-03 0.0000000000e+00 1.6555586676e-02 
					-6.6933252970e-03 -6.6933252970e-03 1.6555586676e-02 
					0.0000000000e+00 -6.6933252970e-03 1.6555586676e-02 
				</DataArray>
				<DataArray type="Float32" Name="Acceleration" NumberOfComponents="3" ComponentName0="X" ComponentName1="Y" ComponentName2="Z" format="ascii">
					0.0000000000e+00 0.0000000000e+00 0.0000000000e+00 
					-4.9796914975e+00 0.0000000000e+00 0.0000000000e+00 
					-4.9796914975e+00 -4.9796914975e+00 0.0000000000e+00 
					0.0000000000e+00 -4.9796914975e+00 0.0000000000e+00 
					0.0000000000e+00 0.0000000000e+00 1.5887316250e+01 
					-4.9796914975e+00 0.0000000000e+00 1.5887316250e+01 
					-4.9796914975e+00 -4.9796914975e+00 1.5887316250e+01 
					0.0000000000e+00 -4.9796914976e+00 1.5887316250e+01 
				</DataArray>
			</PointData>
			<CellData>
				<DataArray type="Float32" Name="Stress (Cauchy)" NumberOfComponents="9" ComponentName0="XX" ComponentName1="XY" ComponentName2="XZ" ComponentName3="YX" ComponentName4="YY" ComponentName5="YZ" ComponentName6="ZX" ComponentName7="ZY" ComponentName8="ZZ" format="ascii">
					5.8101652820e+00 -1.1671816853e-12 -4.2993595446e-13
					-1.1671816853e-12 5.8101652820e+00 -1.3518018603e-13
					-4.2993595446e-13 -1.3518018603e-13 1.6501808749e+03
				</DataArray>
				<DataArray type="Float32" Name="Strain (Logarithmic)" NumberOfComponents="9" ComponentName0="XX" ComponentName1="XY" ComponentName2="XZ" ComponentName3="YX" ComponentName4="YY" ComponentName5="YZ" ComponentName6="ZX" ComponentName7="ZY" ComponentName8="ZZ" format="ascii">
					-6.7518597488e-02 0.0000000000e+00 0.0000000000e+00
					0.0000000000e+00 -6.7518597488e-02 0.0000000000e+00
					0.0000000000e+00 0.0000000000e+00 1.3642107131e-01
				</DataArray>
			</CellData>
		</Piece>
	</UnstructuredGrid>
</VTKFile>
