<?xml version="1.0"?>
<VTKFile type="UnstructuredGrid" version="0.1" byte_order="LittleEndian">
	<UnstructuredGrid>
		<Piece NumberOfPoints="8" NumberOfCells="1">
			<Points>
				<DataArray type="Float32" NumberOfComponents="3" format="ascii">
					0.00000000e+00 0.00000000e+00 0.00000000e+00
					5.00000000e-03 0.00000000e+00 0.00000000e+00
					5.00000000e-03 5.00000000e-03 0.00000000e+00
					0.00000000e+00 5.00000000e-03 0.00000000e+00
					0.00000000e+00 0.00000000e+00 5.00000000e-03
					5.00000000e-03 0.00000000e+00 5.00000000e-03
					5.00000000e-03 5.00000000e-03 5.00000000e-03
					0.00000000e+00 5.00000000e-03 5.00000000e-03
				</DataArray>
			</Points>
			<Cells>
				<DataArray type="Int32" Name="connectivity" format="ascii">
					0	1	2	3	4	5	6	7	

				</DataArray>
				<DataArray type="Int32" Name="offsets" format="ascii">
					8
				</DataArray>
				<DataArray type="UInt8" Name="types" format="ascii">
					12
				</DataArray>
			</Cells>
			<PointData>
				<DataArray type="Float32" Name="Displacement" NumberOfComponents="3" ComponentName0="X" ComponentName1="Y" ComponentName2="Z" format="ascii">
					0.0000000000e+00 0.0000000000e+00 0.0000000000e+00 
					-3.3656836201e-04 0.0000000000e+00 0.0000000000e+00 
					-3.3656836201e-04 -3.3656836201e-04 0.0000000000e+00 
					0.0000000000e+00 -3.3656836201e-04 0.0000000000e+00 
					0.0000000000e+00 0.0000000000e+00 7.5602734937e-04 
					-3.3656836201e-04 0.0000000000e+00 7.5602734937e-04 
					-3.3656836201e-04 -3.3656836201e-04 7.5602734937e-04 
					0.0000000000e+00 -3.3656836201e-04 7.5602734937e-04 
				</DataArray>
				<DataArray type="Float32" Name="Velocity" NumberOfComponents="3" ComponentName0="X" ComponentName1="Y" ComponentName2="Z" format="ascii">
					0.0000000000e+00 0.0000000000e+00 0.0000000000e+00 
					-1.3987214706e-02 0.0000000000e+00 0.0000000000e+00 
					-1.3987214706e-02 -1.3987214706e-02 0.0000000000e+00 
					0.0000000000e+00 -1.3987214706e-02 0.0000000000e+00 
					0.0000000000e+00 0.0000000000e+00 3.5086098789e-02 
					-1.3987214706e-02 0.0000000000e+00 3.5086098789e-02 
					-1.3987214706e-02 -1.3987214706e-02 3.5086098789e-02 
					0.0000000000e+00 -1.3987214706e-02 3.5086098789e-02 
				</DataArray>
				<DataArray type="Float32" Name="Acceleration" NumberOfComponents="3" ComponentName0="X" ComponentName1="Y" ComponentName2="Z" format="ascii">
					0.0000000000e+00 0.0000000000e+00 0.0000000000e+00 
					-7.8535694314e+00 0.0000000000e+00 0.0000000000e+00 
					-7.8535694314e+00 -7.8535694314e+00 0.0000000000e+00 
					0.0000000000e+00 -7.8535694314e+00 0.0000000000e+00 
					0.0000000000e+00 0.0000000000e+00 1.9163621524e+01 
					-7.8535694314e+00 0.0000000000e+00 1.9163621524e+01 
					-7.8535694315e+00 -7.8535694314e+00 1.9163621524e+01 
					0.0000000000e+00 -7.8535694315e+00 1.9163621524e+01 
				</DataArray>
			</PointData>
			<CellData>
				<DataArray type="Float32" Name="Stress (Cauchy)" NumberOfComponents="9" ComponentName0="XX" ComponentName1="XY" ComponentName2="XZ" ComponentName3="YX" ComponentName4="YY" ComponentName5="YZ" ComponentName6="ZX" ComponentName7="ZY" ComponentName8="ZZ" format="ascii">
					9.1429984410e+00 -1.0203090318e-12 1.1046652575e-15
					-1.0203090318e-12 9.1429984410e+00 3.3181902298e-13
					1.1046652575e-15 3.3181902298e-13 1.7073096217e+03
				</DataArray>
				<DataArray type="Float32" Name="Strain (Logarithmic)" NumberOfComponents="9" ComponentName0="XX" ComponentName1="XY" ComponentName2="XZ" ComponentName3="YX" ComponentName4="YY" ComponentName5="YZ" ComponentName6="ZX" ComponentName7="ZY" ComponentName8="ZZ" format="ascii">
					-6.9686332306e-02 0.0000000000e+00 0.0000000000e+00
					0.0000000000e+00 -6.9686332306e-02 0.0000000000e+00
					0.0000000000e+00 0.0000000000e+00 1.4080962803e-01
				</DataArray>
			</CellData>
		</Piece>
	</UnstructuredGrid>
</VTKFile>
