<?xml version="1.0"?>
<VTKFile type="UnstructuredGrid" version="0.1" byte_order="LittleEndian">
	<UnstructuredGrid>
		<Piece NumberOfPoints="8" NumberOfCells="1">
			<Points>
				<DataArray type="Float32" NumberOfComponents="3" format="ascii">
					0.00000000e+00 0.00000000e+00 0.00000000e+00
					5.00000000e-03 0.00000000e+00 0.00000000e+00
					5.00000000e-03 5.00000000e-03 0.00000000e+00
					0.00000000e+00 5.00000000e-03 0.00000000e+00
					0.00000000e+00 0.00000000e+00 5.00000000e-03
					5.00000000e-03 0.00000000e+00 5.00000000e-03
					5.00000000e-03 5.00000000e-03 5.00000000e-03
					0.00000000e+00 5.00000000e-03 5.00000000e-03
				</DataArray>
			</Points>
			<Cells>
				<DataArray type="Int32" Name="connectivity" format="ascii">
					0	1	2	3	4	5	6	7	

				</DataArray>
				<DataArray type="Int32" Name="offsets" format="ascii">
					8
				</DataArray>
				<DataArray type="UInt8" Name="types" format="ascii">
					12
				</DataArray>
			</Cells>
			<PointData>
				<DataArray type="Float32" Name="Displacement" NumberOfComponents="3" ComponentName0="X" ComponentName1="Y" ComponentName2="Z" format="ascii">
					0.0000000000e+00 0.0000000000e+00 0.0000000000e+00 
					-1.7818552104e-04 0.0000000000e+00 0.0000000000e+00 
					-1.7818552104e-04 -1.7818552104e-04 0.0000000000e+00 
					0.0000000000e+00 -1.7818552104e-04 0.0000000000e+00 
					0.0000000000e+00 0.0000000000e+00 3.8019533970e-04 
					-1.7818552104e-04 0.0000000000e+00 3.8019533970e-04 
					-1.7818552104e-04 -1.7818552104e-04 3.8019533970e-04 
					0.0000000000e+00 -1.7818552104e-04 3.8019533970e-04 
				</DataArray>
				<DataArray type="Float32" Name="Velocity" NumberOfComponents="3" ComponentName0="X" ComponentName1="Y" ComponentName2="Z" format="ascii">
					0.0000000000e+00 0.0000000000e+00 0.0000000000e+00 
					-5.4499346577e-03 0.0000000000e+00 0.0000000000e+00 
					-5.4499346577e-03 -5.4499346577e-03 0.0000000000e+00 
					0.0000000000e+00 -5.4499346577e-03 0.0000000000e+00 
					0.0000000000e+00 0.0000000000e+00 1.2193492135e-02 
					-5.4499346577e-03 0.0000000000e+00 1.2193492135e-02 
					-5.4499346577e-03 -5.4499346577e-03 1.2193492135e-02 
					0.0000000000e+00 -5.4499346577e-03 1.2193492135e-02 
				</DataArray>
				<DataArray type="Float32" Name="Acceleration" NumberOfComponents="3" ComponentName0="X" ComponentName1="Y" ComponentName2="Z" format="ascii">
					0.0000000000e+00 0.0000000000e+00 0.0000000000e+00 
					6.6802838803e+00 0.0000000000e+00 0.0000000000e+00 
					6.6802838803e+00 6.6802838803e+00 0.0000000000e+00 
					0.0000000000e+00 6.6802838803e+00 0.0000000000e+00 
					0.0000000000e+00 0.0000000000e+00 -1.6666843980e+01 
					6.6802838803e+00 0.0000000000e+00 -1.6666843980e+01 
					6.6802838804e+00 6.6802838803e+00 -1.6666843980e+01 
					0.0000000000e+00 6.6802838804e+00 -1.6666843980e+01 
				</DataArray>
			</PointData>
			<CellData>
				<DataArray type="Float32" Name="Stress (Cauchy)" NumberOfComponents="9" ComponentName0="XX" ComponentName1="XY" ComponentName2="XZ" ComponentName3="YX" ComponentName4="YY" ComponentName5="YZ" ComponentName6="ZX" ComponentName7="ZY" ComponentName8="ZZ" format="ascii">
					-8.0470444322e+00 5.9116988695e-13 4.3706222762e-14
					5.9116988695e-13 -8.0470444322e+00 -6.7700588216e-13
					4.3706222762e-14 -6.7700588216e-13 8.7026393232e+02
				</DataArray>
				<DataArray type="Float32" Name="Strain (Logarithmic)" NumberOfComponents="9" ComponentName0="XX" ComponentName1="XY" ComponentName2="XZ" ComponentName3="YX" ComponentName4="YY" ComponentName5="YZ" ComponentName6="ZX" ComponentName7="ZY" ComponentName8="ZZ" format="ascii">
					-3.6287607294e-02 0.0000000000e+00 0.0000000000e+00
					0.0000000000e+00 -3.6287607294e-02 0.0000000000e+00
					0.0000000000e+00 0.0000000000e+00 7.3286769576e-02
				</DataArray>
			</CellData>
		</Piece>
	</UnstructuredGrid>
</VTKFile>
