<?xml version="1.0"?>
<VTKFile type="UnstructuredGrid" version="0.1" byte_order="LittleEndian">
	<UnstructuredGrid>
		<Piece NumberOfPoints="8" NumberOfCells="1">
			<Points>
				<DataArray type="Float32" NumberOfComponents="3" format="ascii">
					0.00000000e+00 0.00000000e+00 0.00000000e+00
					5.00000000e-03 0.00000000e+00 0.00000000e+00
					5.00000000e-03 5.00000000e-03 0.00000000e+00
					0.00000000e+00 5.00000000e-03 0.00000000e+00
					0.00000000e+00 0.00000000e+00 5.00000000e-03
					5.00000000e-03 0.00000000e+00 5.00000000e-03
					5.00000000e-03 5.00000000e-03 5.00000000e-03
					0.00000000e+00 5.00000000e-03 5.00000000e-03
				</DataArray>
			</Points>
			<Cells>
				<DataArray type="Int32" Name="connectivity" format="ascii">
					0	1	2	3	4	5	6	7	

				</DataArray>
				<DataArray type="Int32" Name="offsets" format="ascii">
					8
				</DataArray>
				<DataArray type="UInt8" Name="types" format="ascii">
					12
				</DataArray>
			</Cells>
			<PointData>
				<DataArray type="Float32" Name="Displacement" NumberOfComponents="3" ComponentName0="X" ComponentName1="Y" ComponentName2="Z" format="ascii">
					0.0000000000e+00 0.0000000000e+00 0.0000000000e+00 
					-3.8274107902e-04 0.0000000000e+00 0.0000000000e+00 
					-3.8274107902e-04 -3.8274107902e-04 0.0000000000e+00 
					0.0000000000e+00 -3.8274107902e-04 0.0000000000e+00 
					0.0000000000e+00 0.0000000000e+00 8.7269411091e-04 
					-3.8274107902e-04 0.0000000000e+00 8.7269411091e-04 
					-3.8274107902e-04 -3.8274107902e-04 8.7269411091e-04 
					0.0000000000e+00 -3.8274107902e-04 8.7269411091e-04 
				</DataArray>
				<DataArray type="Float32" Name="Velocity" NumberOfComponents="3" ComponentName0="X" ComponentName1="Y" ComponentName2="Z" format="ascii">
					0.0000000000e+00 0.0000000000e+00 0.0000000000e+00 
					-1.5282748120e-02 0.0000000000e+00 0.0000000000e+00 
					-1.5282748120e-02 -1.5282748120e-02 0.0000000000e+00 
					0.0000000000e+00 -1.5282748120e-02 0.0000000000e+00 
					0.0000000000e+00 0.0000000000e+00 3.9453278306e-02 
					-1.5282748120e-02 0.0000000000e+00 3.9453278306e-02 
					-1.5282748120e-02 -1.5282748120e-02 3.9453278306e-02 
					0.0000000000e+00 -1.5282748120e-02 3.9453278306e-02 
				</DataArray>
				<DataArray type="Float32" Name="Acceleration" NumberOfComponents="3" ComponentName0="X" ComponentName1="Y" ComponentName2="Z" format="ascii">
					0.0000000000e+00 0.0000000000e+00 0.0000000000e+00 
					6.2620387812e+00 0.0000000000e+00 0.0000000000e+00 
					6.2620387814e+00 6.2620387813e+00 0.0000000000e+00 
					0.0000000000e+00 6.2620387813e+00 0.0000000000e+00 
					0.0000000000e+00 0.0000000000e+00 -1.7520723367e+01 
					6.2620387812e+00 0.0000000000e+00 -1.7520723367e+01 
					6.2620387814e+00 6.2620387813e+00 -1.7520723367e+01 
					0.0000000000e+00 6.2620387814e+00 -1.7520723367e+01 
				</DataArray>
			</PointData>
			<CellData>
				<DataArray type="Float32" Name="Stress (Cauchy)" NumberOfComponents="9" ComponentName0="XX" ComponentName1="XY" ComponentName2="XZ" ComponentName3="YX" ComponentName4="YY" ComponentName5="YZ" ComponentName6="ZX" ComponentName7="ZY" ComponentName8="ZZ" format="ascii">
					-7.2167916122e+00 -7.5986976354e-13 3.3147462813e-13
					-7.5986976354e-13 -7.2167916122e+00 -1.2715866153e-12
					3.3147462813e-13 -1.2715866153e-12 1.9386118266e+03
				</DataArray>
				<DataArray type="Float32" Name="Strain (Logarithmic)" NumberOfComponents="9" ComponentName0="XX" ComponentName1="XY" ComponentName2="XZ" ComponentName3="YX" ComponentName4="YY" ComponentName5="YZ" ComponentName6="ZX" ComponentName7="ZY" ComponentName8="ZZ" format="ascii">
					-7.9636690563e-02 0.0000000000e+00 0.0000000000e+00
					0.0000000000e+00 -7.9636690563e-02 0.0000000000e+00
					0.0000000000e+00 0.0000000000e+00 1.6087557879e-01
				</DataArray>
			</CellData>
		</Piece>
	</UnstructuredGrid>
</VTKFile>
