<?xml version="1.0"?>
<VTKFile type="UnstructuredGrid" version="0.1" byte_order="LittleEndian">
	<UnstructuredGrid>
		<Piece NumberOfPoints="8" NumberOfCells="1">
			<Points>
				<DataArray type="Float32" NumberOfComponents="3" format="ascii">
					0.00000000e+00 0.00000000e+00 0.00000000e+00
					5.00000000e-03 0.00000000e+00 0.00000000e+00
					5.00000000e-03 5.00000000e-03 0.00000000e+00
					0.00000000e+00 5.00000000e-03 0.00000000e+00
					0.00000000e+00 0.00000000e+00 5.00000000e-03
					5.00000000e-03 0.00000000e+00 5.00000000e-03
					5.00000000e-03 5.00000000e-03 5.00000000e-03
					0.00000000e+00 5.00000000e-03 5.00000000e-03
				</DataArray>
			</Points>
			<Cells>
				<DataArray type="Int32" Name="connectivity" format="ascii">
					0	1	2	3	4	5	6	7	

				</DataArray>
				<DataArray type="Int32" Name="offsets" format="ascii">
					8
				</DataArray>
				<DataArray type="UInt8" Name="types" format="ascii">
					12
				</DataArray>
			</Cells>
			<PointData>
				<DataArray type="Float32" Name="Displacement" NumberOfComponents="3" ComponentName0="X" ComponentName1="Y" ComponentName2="Z" format="ascii">
					0.0000000000e+00 0.0000000000e+00 0.0000000000e+00 
					-3.2377193501e-04 0.0000000000e+00 0.0000000000e+00 
					-3.2377193501e-04 -3.2377193501e-04 0.0000000000e+00 
					0.0000000000e+00 -3.2377193501e-04 0.0000000000e+00 
					0.0000000000e+00 0.0000000000e+00 7.2416274994e-04 
					-3.2377193501e-04 0.0000000000e+00 7.2416274994e-04 
					-3.2377193501e-04 -3.2377193501e-04 7.2416274994e-04 
					0.0000000000e+00 -3.2377193501e-04 7.2416274994e-04 
				</DataArray>
				<DataArray type="Float32" Name="Velocity" NumberOfComponents="3" ComponentName0="X" ComponentName1="Y" ComponentName2="Z" format="ascii">
					0.0000000000e+00 0.0000000000e+00 0.0000000000e+00 
					-4.4613462184e-03 0.0000000000e+00 0.0000000000e+00 
					-4.4613462184e-03 -4.4613462184e-03 0.0000000000e+00 
					0.0000000000e+00 -4.4613462184e-03 0.0000000000e+00 
					0.0000000000e+00 0.0000000000e+00 1.0921191350e-02 
					-4.4613462184e-03 0.0000000000e+00 1.0921191350e-02 
					-4.4613462185e-03 -4.4613462184e-03 1.0921191350e-02 
					0.0000000000e+00 -4.4613462184e-03 1.0921191350e-02 
				</DataArray>
				<DataArray type="Float32" Name="Acceleration" NumberOfComponents="3" ComponentName0="X" ComponentName1="Y" ComponentName2="Z" format="ascii">
					0.0000000000e+00 0.0000000000e+00 0.0000000000e+00 
					-2.9673953569e+00 0.0000000000e+00 0.0000000000e+00 
					-2.9673953570e+00 -2.9673953570e+00 0.0000000000e+00 
					0.0000000000e+00 -2.9673953569e+00 0.0000000000e+00 
					0.0000000000e+00 0.0000000000e+00 7.1120479038e+00 
					-2.9673953569e+00 0.0000000000e+00 7.1120479037e+00 
					-2.9673953569e+00 -2.9673953570e+00 7.1120479036e+00 
					0.0000000000e+00 -2.9673953569e+00 7.1120479037e+00 
				</DataArray>
			</PointData>
			<CellData>
				<DataArray type="Float32" Name="Stress (Cauchy)" NumberOfComponents="9" ComponentName0="XX" ComponentName1="XY" ComponentName2="XZ" ComponentName3="YX" ComponentName4="YY" ComponentName5="YZ" ComponentName6="ZX" ComponentName7="ZY" ComponentName8="ZZ" format="ascii">
					3.4643182148e+00 1.8542017759e-12 3.3826401982e-13
					1.8542017759e-12 3.4643182148e+00 2.1944746177e-13
					3.3826401982e-13 2.1944746177e-13 1.6336182862e+03
				</DataArray>
				<DataArray type="Float32" Name="Strain (Logarithmic)" NumberOfComponents="9" ComponentName0="XX" ComponentName1="XY" ComponentName2="XZ" ComponentName3="YX" ComponentName4="YY" ComponentName5="YZ" ComponentName6="ZX" ComponentName7="ZY" ComponentName8="ZZ" format="ascii">
					-6.6946096492e-02 0.0000000000e+00 0.0000000000e+00
					0.0000000000e+00 -6.6946096492e-02 0.0000000000e+00
					0.0000000000e+00 0.0000000000e+00 1.3525838176e-01
				</DataArray>
			</CellData>
		</Piece>
	</UnstructuredGrid>
</VTKFile>
