<?xml version="1.0"?>
<VTKFile type="UnstructuredGrid" version="0.1" byte_order="LittleEndian">
	<UnstructuredGrid>
		<Piece NumberOfPoints="8" NumberOfCells="1">
			<Points>
				<DataArray type="Float32" NumberOfComponents="3" format="ascii">
					0.00000000e+00 0.00000000e+00 0.00000000e+00
					5.00000000e-03 0.00000000e+00 0.00000000e+00
					5.00000000e-03 5.00000000e-03 0.00000000e+00
					0.00000000e+00 5.00000000e-03 0.00000000e+00
					0.00000000e+00 0.00000000e+00 5.00000000e-03
					5.00000000e-03 0.00000000e+00 5.00000000e-03
					5.00000000e-03 5.00000000e-03 5.00000000e-03
					0.00000000e+00 5.00000000e-03 5.00000000e-03
				</DataArray>
			</Points>
			<Cells>
				<DataArray type="Int32" Name="connectivity" format="ascii">
					0	1	2	3	4	5	6	7	

				</DataArray>
				<DataArray type="Int32" Name="offsets" format="ascii">
					8
				</DataArray>
				<DataArray type="UInt8" Name="types" format="ascii">
					12
				</DataArray>
			</Cells>
			<PointData>
				<DataArray type="Float32" Name="Displacement" NumberOfComponents="3" ComponentName0="X" ComponentName1="Y" ComponentName2="Z" format="ascii">
					0.0000000000e+00 0.0000000000e+00 0.0000000000e+00 
					-4.6320163194e-04 0.0000000000e+00 0.0000000000e+00 
					-4.6320163194e-04 -4.6320163194e-04 0.0000000000e+00 
					0.0000000000e+00 -4.6320163194e-04 0.0000000000e+00 
					0.0000000000e+00 0.0000000000e+00 1.0850945341e-03 
					-4.6320163194e-04 0.0000000000e+00 1.0850945341e-03 
					-4.6320163194e-04 -4.6320163194e-04 1.0850945341e-03 
					0.0000000000e+00 -4.6320163194e-04 1.0850945341e-03 
				</DataArray>
				<DataArray type="Float32" Name="Velocity" NumberOfComponents="3" ComponentName0="X" ComponentName1="Y" ComponentName2="Z" format="ascii">
					0.0000000000e+00 0.0000000000e+00 0.0000000000e+00 
					-1.6452940204e-02 0.0000000000e+00 0.0000000000e+00 
					-1.6452940204e-02 -1.6452940204e-02 0.0000000000e+00 
					0.0000000000e+00 -1.6452940204e-02 0.0000000000e+00 
					0.0000000000e+00 0.0000000000e+00 4.4304727558e-02 
					-1.6452940204e-02 0.0000000000e+00 4.4304727558e-02 
					-1.6452940204e-02 -1.6452940204e-02 4.4304727558e-02 
					0.0000000000e+00 -1.6452940204e-02 4.4304727558e-02 
				</DataArray>
				<DataArray type="Float32" Name="Acceleration" NumberOfComponents="3" ComponentName0="X" ComponentName1="Y" ComponentName2="Z" format="ascii">
					0.0000000000e+00 0.0000000000e+00 0.0000000000e+00 
					6.2624867422e+00 0.0000000000e+00 0.0000000000e+00 
					6.2624867421e+00 6.2624867421e+00 0.0000000000e+00 
					0.0000000000e+00 6.2624867422e+00 0.0000000000e+00 
					0.0000000000e+00 0.0000000000e+00 -1.5138153941e+01 
					6.2624867423e+00 0.0000000000e+00 -1.5138153941e+01 
					6.2624867423e+00 6.2624867423e+00 -1.5138153941e+01 
					0.0000000000e+00 6.2624867423e+00 -1.5138153941e+01 
				</DataArray>
			</PointData>
			<CellData>
				<DataArray type="Float32" Name="Stress (Cauchy)" NumberOfComponents="9" ComponentName0="XX" ComponentName1="XY" ComponentName2="XZ" ComponentName3="YX" ComponentName4="YY" ComponentName5="YZ" ComponentName6="ZX" ComponentName7="ZY" ComponentName8="ZZ" format="ascii">
					-7.0889193190e+00 1.5091209564e-12 -1.1729282171e-12
					1.5091209564e-12 -7.0889193190e+00 -5.3900036317e-13
					-1.1729282171e-12 -5.3900036317e-13 2.3824805439e+03
				</DataArray>
				<DataArray type="Float32" Name="Strain (Logarithmic)" NumberOfComponents="9" ComponentName0="XX" ComponentName1="XY" ComponentName2="XZ" ComponentName3="YX" ComponentName4="YY" ComponentName5="YZ" ComponentName6="ZX" ComponentName7="ZY" ComponentName8="ZZ" format="ascii">
					-9.7216354427e-02 0.0000000000e+00 0.0000000000e+00
					0.0000000000e+00 -9.7216354427e-02 0.0000000000e+00
					0.0000000000e+00 0.0000000000e+00 1.9640434948e-01
				</DataArray>
			</CellData>
		</Piece>
	</UnstructuredGrid>
</VTKFile>
