<?xml version="1.0"?>
<VTKFile type="UnstructuredGrid" version="0.1" byte_order="LittleEndian">
	<UnstructuredGrid>
		<Piece NumberOfPoints="8" NumberOfCells="1">
			<Points>
				<DataArray type="Float32" NumberOfComponents="3" format="ascii">
					0.00000000e+00 0.00000000e+00 0.00000000e+00
					5.00000000e-03 0.00000000e+00 0.00000000e+00
					5.00000000e-03 5.00000000e-03 0.00000000e+00
					0.00000000e+00 5.00000000e-03 0.00000000e+00
					0.00000000e+00 0.00000000e+00 5.00000000e-03
					5.00000000e-03 0.00000000e+00 5.00000000e-03
					5.00000000e-03 5.00000000e-03 5.00000000e-03
					0.00000000e+00 5.00000000e-03 5.00000000e-03
				</DataArray>
			</Points>
			<Cells>
				<DataArray type="Int32" Name="connectivity" format="ascii">
					0	1	2	3	4	5	6	7	

				</DataArray>
				<DataArray type="Int32" Name="offsets" format="ascii">
					8
				</DataArray>
				<DataArray type="UInt8" Name="types" format="ascii">
					12
				</DataArray>
			</Cells>
			<PointData>
				<DataArray type="Float32" Name="Displacement" NumberOfComponents="3" ComponentName0="X" ComponentName1="Y" ComponentName2="Z" format="ascii">
					0.0000000000e+00 0.0000000000e+00 0.0000000000e+00 
					-4.8974742855e-04 0.0000000000e+00 0.0000000000e+00 
					-4.8974742855e-04 -4.8974742855e-04 0.0000000000e+00 
					0.0000000000e+00 -4.8974742855e-04 0.0000000000e+00 
					0.0000000000e+00 0.0000000000e+00 1.1578676099e-03 
					-4.8974742855e-04 0.0000000000e+00 1.1578676099e-03 
					-4.8974742855e-04 -4.8974742855e-04 1.1578676099e-03 
					0.0000000000e+00 -4.8974742855e-04 1.1578676099e-03 
				</DataArray>
				<DataArray type="Float32" Name="Velocity" NumberOfComponents="3" ComponentName0="X" ComponentName1="Y" ComponentName2="Z" format="ascii">
					0.0000000000e+00 0.0000000000e+00 0.0000000000e+00 
					-7.3247189138e-03 0.0000000000e+00 0.0000000000e+00 
					-7.3247189138e-03 -7.3247189138e-03 0.0000000000e+00 
					0.0000000000e+00 -7.3247189138e-03 0.0000000000e+00 
					0.0000000000e+00 0.0000000000e+00 2.0116612759e-02 
					-7.3247189138e-03 0.0000000000e+00 2.0116612759e-02 
					-7.3247189138e-03 -7.3247189138e-03 2.0116612759e-02 
					0.0000000000e+00 -7.3247189138e-03 2.0116612759e-02 
				</DataArray>
				<DataArray type="Float32" Name="Acceleration" NumberOfComponents="3" ComponentName0="X" ComponentName1="Y" ComponentName2="Z" format="ascii">
					0.0000000000e+00 0.0000000000e+00 0.0000000000e+00 
					-3.1802756817e+00 0.0000000000e+00 0.0000000000e+00 
					-3.1802756817e+00 -3.1802756817e+00 0.0000000000e+00 
					0.0000000000e+00 -3.1802756817e+00 0.0000000000e+00 
					0.0000000000e+00 0.0000000000e+00 1.2064924637e+01 
					-3.1802756817e+00 0.0000000000e+00 1.2064924637e+01 
					-3.1802756818e+00 -3.1802756818e+00 1.2064924637e+01 
					0.0000000000e+00 -3.1802756817e+00 1.2064924637e+01 
				</DataArray>
			</PointData>
			<CellData>
				<DataArray type="Float32" Name="Stress (Cauchy)" NumberOfComponents="9" ComponentName0="XX" ComponentName1="XY" ComponentName2="XZ" ComponentName3="YX" ComponentName4="YY" ComponentName5="YZ" ComponentName6="ZX" ComponentName7="ZY" ComponentName8="ZZ" format="ascii">
					3.5783562850e+00 6.7441394304e-13 5.5782323779e-13
					6.7441394304e-13 3.5783562850e+00 8.3198278441e-13
					5.5782323779e-13 8.3198278441e-13 2.5432962552e+03
				</DataArray>
				<DataArray type="Float32" Name="Strain (Logarithmic)" NumberOfComponents="9" ComponentName0="XX" ComponentName1="XY" ComponentName2="XZ" ComponentName3="YX" ComponentName4="YY" ComponentName5="YZ" ComponentName6="ZX" ComponentName7="ZY" ComponentName8="ZZ" format="ascii">
					-1.0308475795e-01 0.0000000000e+00 0.0000000000e+00
					0.0000000000e+00 -1.0308475795e-01 0.0000000000e+00
					0.0000000000e+00 0.0000000000e+00 2.0829263795e-01
				</DataArray>
			</CellData>
		</Piece>
	</UnstructuredGrid>
</VTKFile>
