<?xml version="1.0"?>
<VTKFile type="UnstructuredGrid" version="0.1" byte_order="LittleEndian">
	<UnstructuredGrid>
		<Piece NumberOfPoints="8" NumberOfCells="1">
			<Points>
				<DataArray type="Float32" NumberOfComponents="3" format="ascii">
					0.00000000e+00 0.00000000e+00 0.00000000e+00
					5.00000000e-03 0.00000000e+00 0.00000000e+00
					5.00000000e-03 5.00000000e-03 0.00000000e+00
					0.00000000e+00 5.00000000e-03 0.00000000e+00
					0.00000000e+00 0.00000000e+00 5.00000000e-03
					5.00000000e-03 0.00000000e+00 5.00000000e-03
					5.00000000e-03 5.00000000e-03 5.00000000e-03
					0.00000000e+00 5.00000000e-03 5.00000000e-03
				</DataArray>
			</Points>
			<Cells>
				<DataArray type="Int32" Name="connectivity" format="ascii">
					0	1	2	3	4	5	6	7	

				</DataArray>
				<DataArray type="Int32" Name="offsets" format="ascii">
					8
				</DataArray>
				<DataArray type="UInt8" Name="types" format="ascii">
					12
				</DataArray>
			</Cells>
			<PointData>
				<DataArray type="Float32" Name="Displacement" NumberOfComponents="3" ComponentName0="X" ComponentName1="Y" ComponentName2="Z" format="ascii">
					0.0000000000e+00 0.0000000000e+00 0.0000000000e+00 
					-1.4730440879e-07 0.0000000000e+00 0.0000000000e+00 
					-1.4730440879e-07 -1.4730440879e-07 0.0000000000e+00 
					0.0000000000e+00 -1.4730440879e-07 0.0000000000e+00 
					0.0000000000e+00 0.0000000000e+00 3.7747796435e-07 
					-1.4730440879e-07 0.0000000000e+00 3.7747796435e-07 
					-1.4730440879e-07 -1.4730440879e-07 3.7747796435e-07 
					0.0000000000e+00 -1.4730440879e-07 3.7747796435e-07 
				</DataArray>
				<DataArray type="Float32" Name="Velocity" NumberOfComponents="3" ComponentName0="X" ComponentName1="Y" ComponentName2="Z" format="ascii">
					0.0000000000e+00 0.0000000000e+00 0.0000000000e+00 
					-1.2220099644e-03 0.0000000000e+00 0.0000000000e+00 
					-1.2220099644e-03 -1.2220099644e-03 0.0000000000e+00 
					0.0000000000e+00 -1.2220099644e-03 0.0000000000e+00 
					0.0000000000e+00 0.0000000000e+00 2.4535572570e-03 
					-1.2220099644e-03 0.0000000000e+00 2.4535572570e-03 
					-1.2220099644e-03 -1.2220099644e-03 2.4535572570e-03 
					0.0000000000e+00 -1.2220099644e-03 2.4535572570e-03 
				</DataArray>
				<DataArray type="Float32" Name="Acceleration" NumberOfComponents="3" ComponentName0="X" ComponentName1="Y" ComponentName2="Z" format="ascii">
					0.0000000000e+00 0.0000000000e+00 0.0000000000e+00 
					-5.0788151865e+00 0.0000000000e+00 0.0000000000e+00 
					-5.0788151865e+00 -5.0788151865e+00 0.0000000000e+00 
					0.0000000000e+00 -5.0788151865e+00 0.0000000000e+00 
					0.0000000000e+00 0.0000000000e+00 1.1220616364e+01 
					-5.0788151865e+00 0.0000000000e+00 1.1220616364e+01 
					-5.0788151865e+00 -5.0788151865e+00 1.1220616364e+01 
					0.0000000000e+00 -5.0788151865e+00 1.1220616364e+01 
				</DataArray>
			</PointData>
			<CellData>
				<DataArray type="Float32" Name="Stress (Cauchy)" NumberOfComponents="9" ComponentName0="XX" ComponentName1="XY" ComponentName2="XZ" ComponentName3="YX" ComponentName4="YY" ComponentName5="YZ" ComponentName6="ZX" ComponentName7="ZY" ComponentName8="ZZ" format="ascii">
					6.3482267584e+00 0.0000000000e+00 0.0000000000e+00
					0.0000000000e+00 6.3482267584e+00 0.0000000000e+00
					0.0000000000e+00 0.0000000000e+00 7.1878453195e+00
				</DataArray>
				<DataArray type="Float32" Name="Strain (Logarithmic)" NumberOfComponents="9" ComponentName0="XX" ComponentName1="XY" ComponentName2="XZ" ComponentName3="YX" ComponentName4="YY" ComponentName5="YZ" ComponentName6="ZX" ComponentName7="ZY" ComponentName8="ZZ" format="ascii">
					-2.9461315738e-05 0.0000000000e+00 0.0000000000e+00
					0.0000000000e+00 -2.9461315738e-05 0.0000000000e+00
					0.0000000000e+00 0.0000000000e+00 7.5492743222e-05
				</DataArray>
			</CellData>
		</Piece>
	</UnstructuredGrid>
</VTKFile>
