<?xml version="1.0"?>
<VTKFile type="UnstructuredGrid" version="0.1" byte_order="LittleEndian">
	<UnstructuredGrid>
		<Piece NumberOfPoints="8" NumberOfCells="1">
			<Points>
				<DataArray type="Float32" NumberOfComponents="3" format="ascii">
					0.00000000e+00 0.00000000e+00 0.00000000e+00
					5.00000000e-03 0.00000000e+00 0.00000000e+00
					5.00000000e-03 5.00000000e-03 0.00000000e+00
					0.00000000e+00 5.00000000e-03 0.00000000e+00
					0.00000000e+00 0.00000000e+00 5.00000000e-03
					5.00000000e-03 0.00000000e+00 5.00000000e-03
					5.00000000e-03 5.00000000e-03 5.00000000e-03
					0.00000000e+00 5.00000000e-03 5.00000000e-03
				</DataArray>
			</Points>
			<Cells>
				<DataArray type="Int32" Name="connectivity" format="ascii">
					0	1	2	3	4	5	6	7	

				</DataArray>
				<DataArray type="Int32" Name="offsets" format="ascii">
					8
				</DataArray>
				<DataArray type="UInt8" Name="types" format="ascii">
					12
				</DataArray>
			</Cells>
			<PointData>
				<DataArray type="Float32" Name="Displacement" NumberOfComponents="3" ComponentName0="X" ComponentName1="Y" ComponentName2="Z" format="ascii">
					0.0000000000e+00 0.0000000000e+00 0.0000000000e+00 
					-5.7507667727e-04 0.0000000000e+00 0.0000000000e+00 
					-5.7507667727e-04 -5.7507667727e-04 0.0000000000e+00 
					0.0000000000e+00 -5.7507667727e-04 0.0000000000e+00 
					0.0000000000e+00 0.0000000000e+00 1.4002208936e-03 
					-5.7507667727e-04 0.0000000000e+00 1.4002208936e-03 
					-5.7507667727e-04 -5.7507667727e-04 1.4002208936e-03 
					0.0000000000e+00 -5.7507667727e-04 1.4002208936e-03 
				</DataArray>
				<DataArray type="Float32" Name="Velocity" NumberOfComponents="3" ComponentName0="X" ComponentName1="Y" ComponentName2="Z" format="ascii">
					0.0000000000e+00 0.0000000000e+00 0.0000000000e+00 
					-6.7549339753e-03 0.0000000000e+00 0.0000000000e+00 
					-6.7549339753e-03 -6.7549339753e-03 0.0000000000e+00 
					0.0000000000e+00 -6.7549339753e-03 0.0000000000e+00 
					0.0000000000e+00 0.0000000000e+00 2.0104067656e-02 
					-6.7549339753e-03 0.0000000000e+00 2.0104067656e-02 
					-6.7549339753e-03 -6.7549339753e-03 2.0104067656e-02 
					0.0000000000e+00 -6.7549339753e-03 2.0104067656e-02 
				</DataArray>
				<DataArray type="Float32" Name="Acceleration" NumberOfComponents="3" ComponentName0="X" ComponentName1="Y" ComponentName2="Z" format="ascii">
					0.0000000000e+00 0.0000000000e+00 0.0000000000e+00 
					5.7765418448e-01 0.0000000000e+00 0.0000000000e+00 
					5.7765418468e-01 5.7765418452e-01 0.0000000000e+00 
					0.0000000000e+00 5.7765418464e-01 0.0000000000e+00 
					0.0000000000e+00 0.0000000000e+00 -3.2999985356e+00 
					5.7765418444e-01 0.0000000000e+00 -3.2999985357e+00 
					5.7765418460e-01 5.7765418445e-01 -3.2999985356e+00 
					0.0000000000e+00 5.7765418459e-01 -3.2999985355e+00 
				</DataArray>
			</PointData>
			<CellData>
				<DataArray type="Float32" Name="Stress (Cauchy)" NumberOfComponents="9" ComponentName0="XX" ComponentName1="XY" ComponentName2="XZ" ComponentName3="YX" ComponentName4="YY" ComponentName5="YZ" ComponentName6="ZX" ComponentName7="ZY" ComponentName8="ZZ" format="ascii">
					-6.3740759322e-01 5.8023850889e-13 7.5475366676e-13
					5.8023850889e-13 -6.3740759322e-01 -4.6290665880e-13
					7.5475366676e-13 -4.6290665880e-13 3.0347031851e+03
				</DataArray>
				<DataArray type="Float32" Name="Strain (Logarithmic)" NumberOfComponents="9" ComponentName0="XX" ComponentName1="XY" ComponentName2="XZ" ComponentName3="YX" ComponentName4="YY" ComponentName5="YZ" ComponentName6="ZX" ComponentName7="ZY" ComponentName8="ZZ" format="ascii">
					-1.2218496232e-01 0.0000000000e+00 0.0000000000e+00
					0.0000000000e+00 -1.2218496232e-01 0.0000000000e+00
					0.0000000000e+00 0.0000000000e+00 2.4689459196e-01
				</DataArray>
			</CellData>
		</Piece>
	</UnstructuredGrid>
</VTKFile>
