<?xml version="1.0"?>
<VTKFile type="UnstructuredGrid" version="0.1" byte_order="LittleEndian">
	<UnstructuredGrid>
		<Piece NumberOfPoints="8" NumberOfCells="1">
			<Points>
				<DataArray type="Float32" NumberOfComponents="3" format="ascii">
					0.00000000e+00 0.00000000e+00 0.00000000e+00
					5.00000000e-03 0.00000000e+00 0.00000000e+00
					5.00000000e-03 5.00000000e-03 0.00000000e+00
					0.00000000e+00 5.00000000e-03 0.00000000e+00
					0.00000000e+00 0.00000000e+00 5.00000000e-03
					5.00000000e-03 0.00000000e+00 5.00000000e-03
					5.00000000e-03 5.00000000e-03 5.00000000e-03
					0.00000000e+00 5.00000000e-03 5.00000000e-03
				</DataArray>
			</Points>
			<Cells>
				<DataArray type="Int32" Name="connectivity" format="ascii">
					0	1	2	3	4	5	6	7	

				</DataArray>
				<DataArray type="Int32" Name="offsets" format="ascii">
					8
				</DataArray>
				<DataArray type="UInt8" Name="types" format="ascii">
					12
				</DataArray>
			</Cells>
			<PointData>
				<DataArray type="Float32" Name="Displacement" NumberOfComponents="3" ComponentName0="X" ComponentName1="Y" ComponentName2="Z" format="ascii">
					0.0000000000e+00 0.0000000000e+00 0.0000000000e+00 
					-3.6340531251e-04 0.0000000000e+00 0.0000000000e+00 
					-3.6340531251e-04 -3.6340531251e-04 0.0000000000e+00 
					0.0000000000e+00 -3.6340531251e-04 0.0000000000e+00 
					0.0000000000e+00 0.0000000000e+00 8.2339181315e-04 
					-3.6340531251e-04 0.0000000000e+00 8.2339181315e-04 
					-3.6340531251e-04 -3.6340531251e-04 8.2339181315e-04 
					0.0000000000e+00 -3.6340531251e-04 8.2339181315e-04 
				</DataArray>
				<DataArray type="Float32" Name="Velocity" NumberOfComponents="3" ComponentName0="X" ComponentName1="Y" ComponentName2="Z" format="ascii">
					0.0000000000e+00 0.0000000000e+00 0.0000000000e+00 
					-2.0035474366e-02 0.0000000000e+00 0.0000000000e+00 
					-2.0035474366e-02 -2.0035474366e-02 0.0000000000e+00 
					0.0000000000e+00 -2.0035474366e-02 0.0000000000e+00 
					0.0000000000e+00 0.0000000000e+00 5.0491864232e-02 
					-2.0035474366e-02 0.0000000000e+00 5.0491864232e-02 
					-2.0035474366e-02 -2.0035474366e-02 5.0491864232e-02 
					0.0000000000e+00 -2.0035474366e-02 5.0491864232e-02 
				</DataArray>
				<DataArray type="Float32" Name="Acceleration" NumberOfComponents="3" ComponentName0="X" ComponentName1="Y" ComponentName2="Z" format="ascii">
					0.0000000000e+00 0.0000000000e+00 0.0000000000e+00 
					1.3533655867e+00 0.0000000000e+00 0.0000000000e+00 
					1.3533655867e+00 1.3533655867e+00 0.0000000000e+00 
					0.0000000000e+00 1.3533655868e+00 0.0000000000e+00 
					0.0000000000e+00 0.0000000000e+00 -1.6084921421e+00 
					1.3533655868e+00 0.0000000000e+00 -1.6084921422e+00 
					1.3533655868e+00 1.3533655867e+00 -1.6084921422e+00 
					0.0000000000e+00 1.3533655869e+00 -1.6084921421e+00 
				</DataArray>
			</PointData>
			<CellData>
				<DataArray type="Float32" Name="Stress (Cauchy)" NumberOfComponents="9" ComponentName0="XX" ComponentName1="XY" ComponentName2="XZ" ComponentName3="YX" ComponentName4="YY" ComponentName5="YZ" ComponentName6="ZX" ComponentName7="ZY" ComponentName8="ZZ" format="ascii">
					-1.5663543082e+00 3.7788563046e-13 2.9239217070e-13
					3.7788563046e-13 -1.5663543082e+00 -7.9587643721e-13
					2.9239217070e-13 -7.9587643721e-13 1.8399694188e+03
				</DataArray>
				<DataArray type="Float32" Name="Strain (Logarithmic)" NumberOfComponents="9" ComponentName0="XX" ComponentName1="XY" ComponentName2="XZ" ComponentName3="YX" ComponentName4="YY" ComponentName5="YZ" ComponentName6="ZX" ComponentName7="ZY" ComponentName8="ZZ" format="ascii">
					-7.5457719193e-02 0.0000000000e+00 0.0000000000e+00
					0.0000000000e+00 -7.5457719193e-02 0.0000000000e+00
					0.0000000000e+00 0.0000000000e+00 1.5244496532e-01
				</DataArray>
			</CellData>
		</Piece>
	</UnstructuredGrid>
</VTKFile>
