<?xml version="1.0"?>
<VTKFile type="UnstructuredGrid" version="0.1" byte_order="LittleEndian">
	<UnstructuredGrid>
		<Piece NumberOfPoints="8" NumberOfCells="1">
			<Points>
				<DataArray type="Float32" NumberOfComponents="3" format="ascii">
					0.00000000e+00 0.00000000e+00 0.00000000e+00
					5.00000000e-03 0.00000000e+00 0.00000000e+00
					5.00000000e-03 5.00000000e-03 0.00000000e+00
					0.00000000e+00 5.00000000e-03 0.00000000e+00
					0.00000000e+00 0.00000000e+00 5.00000000e-03
					5.00000000e-03 0.00000000e+00 5.00000000e-03
					5.00000000e-03 5.00000000e-03 5.00000000e-03
					0.00000000e+00 5.00000000e-03 5.00000000e-03
				</DataArray>
			</Points>
			<Cells>
				<DataArray type="Int32" Name="connectivity" format="ascii">
					0	1	2	3	4	5	6	7	

				</DataArray>
				<DataArray type="Int32" Name="offsets" format="ascii">
					8
				</DataArray>
				<DataArray type="UInt8" Name="types" format="ascii">
					12
				</DataArray>
			</Cells>
			<PointData>
				<DataArray type="Float32" Name="Displacement" NumberOfComponents="3" ComponentName0="X" ComponentName1="Y" ComponentName2="Z" format="ascii">
					0.0000000000e+00 0.0000000000e+00 0.0000000000e+00 
					-9.5844991019e-05 0.0000000000e+00 0.0000000000e+00 
					-9.5844991019e-05 -9.5844991019e-05 0.0000000000e+00 
					0.0000000000e+00 -9.5844991019e-05 0.0000000000e+00 
					0.0000000000e+00 0.0000000000e+00 2.0044232889e-04 
					-9.5844991019e-05 0.0000000000e+00 2.0044232889e-04 
					-9.5844991019e-05 -9.5844991019e-05 2.0044232889e-04 
					0.0000000000e+00 -9.5844991019e-05 2.0044232889e-04 
				</DataArray>
				<DataArray type="Float32" Name="Velocity" NumberOfComponents="3" ComponentName0="X" ComponentName1="Y" ComponentName2="Z" format="ascii">
					4.7040272419e-03 4.7040272419e-03 3.7016914419e+00 
					-4.7040272419e-03 4.7040272419e-03 3.7016914419e+00 
					-4.7040272419e-03 -4.7040272419e-03 3.7016914419e+00 
					4.7040272419e-03 -4.7040272419e-03 3.7016914419e+00 
					4.7040272419e-03 4.7040272419e-03 -3.7016914419e+00 
					-4.7040272419e-03 4.7040272419e-03 -3.7016914419e+00 
					-4.7040272419e-03 -4.7040272419e-03 -3.7016914419e+00 
					4.7040272419e-03 -4.7040272419e-03 -3.7016914419e+00 
				</DataArray>
				<DataArray type="Float32" Name="Acceleration" NumberOfComponents="3" ComponentName0="X" ComponentName1="Y" ComponentName2="Z" format="ascii">
					6.6791422790e+01 6.6791422791e+01 4.2422149813e+02 
					-6.6791422790e+01 6.6791422790e+01 4.2422149813e+02 
					-6.6791422790e+01 -6.6791422790e+01 4.2422149813e+02 
					6.6791422790e+01 -6.6791422791e+01 4.2422149813e+02 
					6.6791422790e+01 6.6791422790e+01 -4.2422149813e+02 
					-6.6791422790e+01 6.6791422790e+01 -4.2422149813e+02 
					-6.6791422790e+01 -6.6791422790e+01 -4.2422149813e+02 
					6.6791422790e+01 -6.6791422790e+01 -4.2422149813e+02 
				</DataArray>
			</PointData>
			<CellData>
				<DataArray type="Float32" Name="Stress (Cauchy)" NumberOfComponents="9" ComponentName0="XX" ComponentName1="XY" ComponentName2="XZ" ComponentName3="YX" ComponentName4="YY" ComponentName5="YZ" ComponentName6="ZX" ComponentName7="ZY" ComponentName8="ZZ" format="ascii">
					8.1840117315e+01 -1.7689250729e-14 -9.1577799078e-13
					-1.7689250729e-14 8.1840117315e+01 -9.2284963549e-13
					-9.1577799078e-13 -9.2284963549e-13 5.5120648377e+02
				</DataArray>
				<DataArray type="Float32" Name="Strain (Logarithmic)" NumberOfComponents="9" ComponentName0="XX" ComponentName1="XY" ComponentName2="XZ" ComponentName3="YX" ComponentName4="YY" ComponentName5="YZ" ComponentName6="ZX" ComponentName7="ZY" ComponentName8="ZZ" format="ascii">
					-1.9355105617e-02 0.0000000000e+00 0.0000000000e+00
					0.0000000000e+00 -1.9355105617e-02 0.0000000000e+00
					0.0000000000e+00 0.0000000000e+00 3.9305772784e-02
				</DataArray>
			</CellData>
		</Piece>
	</UnstructuredGrid>
</VTKFile>
