<?xml version="1.0"?>
<VTKFile type="UnstructuredGrid" version="0.1" byte_order="LittleEndian">
	<UnstructuredGrid>
		<Piece NumberOfPoints="8" NumberOfCells="1">
			<Points>
				<DataArray type="Float32" NumberOfComponents="3" format="ascii">
					0.00000000e+00 0.00000000e+00 0.00000000e+00
					5.00000000e-03 0.00000000e+00 0.00000000e+00
					5.00000000e-03 5.00000000e-03 0.00000000e+00
					0.00000000e+00 5.00000000e-03 0.00000000e+00
					0.00000000e+00 0.00000000e+00 5.00000000e-03
					5.00000000e-03 0.00000000e+00 5.00000000e-03
					5.00000000e-03 5.00000000e-03 5.00000000e-03
					0.00000000e+00 5.00000000e-03 5.00000000e-03
				</DataArray>
			</Points>
			<Cells>
				<DataArray type="Int32" Name="connectivity" format="ascii">
					0	1	2	3	4	5	6	7	

				</DataArray>
				<DataArray type="Int32" Name="offsets" format="ascii">
					8
				</DataArray>
				<DataArray type="UInt8" Name="types" format="ascii">
					12
				</DataArray>
			</Cells>
			<PointData>
				<DataArray type="Float32" Name="Displacement" NumberOfComponents="3" ComponentName0="X" ComponentName1="Y" ComponentName2="Z" format="ascii">
					0.0000000000e+00 0.0000000000e+00 0.0000000000e+00 
					-3.3411893066e-04 0.0000000000e+00 0.0000000000e+00 
					-3.3411893066e-04 -3.3411893066e-04 0.0000000000e+00 
					0.0000000000e+00 -3.3411893066e-04 0.0000000000e+00 
					0.0000000000e+00 0.0000000000e+00 7.5062562292e-04 
					-3.3411893066e-04 0.0000000000e+00 7.5062562292e-04 
					-3.3411893066e-04 -3.3411893066e-04 7.5062562292e-04 
					0.0000000000e+00 -3.3411893066e-04 7.5062562292e-04 
				</DataArray>
				<DataArray type="Float32" Name="Velocity" NumberOfComponents="3" ComponentName0="X" ComponentName1="Y" ComponentName2="Z" format="ascii">
					2.9372967734e-04 2.9372967734e-04 4.7025854882e+01 
					-2.9372967734e-04 2.9372967732e-04 4.7025854882e+01 
					-2.9372967732e-04 -2.9372967732e-04 4.7025854882e+01 
					2.9372967732e-04 -2.9372967734e-04 4.7025854882e+01 
					2.9372967732e-04 2.9372967731e-04 -4.7025854882e+01 
					-2.9372967732e-04 2.9372967731e-04 -4.7025854882e+01 
					-2.9372967730e-04 -2.9372967730e-04 -4.7025854882e+01 
					2.9372967730e-04 -2.9372967731e-04 -4.7025854882e+01 
				</DataArray>
				<DataArray type="Float32" Name="Acceleration" NumberOfComponents="3" ComponentName0="X" ComponentName1="Y" ComponentName2="Z" format="ascii">
					4.9639949855e+01 4.9639949855e+01 1.2147927327e+03 
					-4.9639949855e+01 4.9639949854e+01 1.2147927327e+03 
					-4.9639949854e+01 -4.9639949854e+01 1.2147927327e+03 
					4.9639949854e+01 -4.9639949855e+01 1.2147927327e+03 
					4.9639949855e+01 4.9639949855e+01 -1.2147927327e+03 
					-4.9639949855e+01 4.9639949855e+01 -1.2147927327e+03 
					-4.9639949855e+01 -4.9639949855e+01 -1.2147927327e+03 
					4.9639949855e+01 -4.9639949855e+01 -1.2147927327e+03 
				</DataArray>
			</PointData>
			<CellData>
				<DataArray type="Float32" Name="Stress (Cauchy)" NumberOfComponents="9" ComponentName0="XX" ComponentName1="XY" ComponentName2="XZ" ComponentName3="YX" ComponentName4="YY" ComponentName5="YZ" ComponentName6="ZX" ComponentName7="ZY" ComponentName8="ZZ" format="ascii">
					5.7813943810e+01 -4.8427277344e-12 1.6075382267e-12
					-4.8427277344e-12 5.7813943810e+01 1.5331151606e-12
					1.6075382267e-12 1.5331151606e-12 1.7437526373e+03
				</DataArray>
				<DataArray type="Float32" Name="Strain (Logarithmic)" NumberOfComponents="9" ComponentName0="XX" ComponentName1="XY" ComponentName2="XZ" ComponentName3="YX" ComponentName4="YY" ComponentName5="YZ" ComponentName6="ZX" ComponentName7="ZY" ComponentName8="ZZ" format="ascii">
					-6.9161227941e-02 -5.2735593670e-16 1.5797178114e-16
					-5.3429483060e-16 -6.9161227941e-02 2.3207210418e-16
					1.5797178114e-16 2.3207210418e-16 1.3987074044e-01
				</DataArray>
			</CellData>
		</Piece>
	</UnstructuredGrid>
</VTKFile>
