<?xml version="1.0"?>
<VTKFile type="UnstructuredGrid" version="0.1" byte_order="LittleEndian">
	<UnstructuredGrid>
		<Piece NumberOfPoints="8" NumberOfCells="1">
			<Points>
				<DataArray type="Float32" NumberOfComponents="3" format="ascii">
					0.00000000e+00 0.00000000e+00 0.00000000e+00
					5.00000000e-03 0.00000000e+00 0.00000000e+00
					5.00000000e-03 5.00000000e-03 0.00000000e+00
					0.00000000e+00 5.00000000e-03 0.00000000e+00
					0.00000000e+00 0.00000000e+00 5.00000000e-03
					5.00000000e-03 0.00000000e+00 5.00000000e-03
					5.00000000e-03 5.00000000e-03 5.00000000e-03
					0.00000000e+00 5.00000000e-03 5.00000000e-03
				</DataArray>
			</Points>
			<Cells>
				<DataArray type="Int32" Name="connectivity" format="ascii">
					0	1	2	3	4	5	6	7	

				</DataArray>
				<DataArray type="Int32" Name="offsets" format="ascii">
					8
				</DataArray>
				<DataArray type="UInt8" Name="types" format="ascii">
					12
				</DataArray>
			</Cells>
			<PointData>
				<DataArray type="Float32" Name="Displacement" NumberOfComponents="3" ComponentName0="X" ComponentName1="Y" ComponentName2="Z" format="ascii">
					0.0000000000e+00 0.0000000000e+00 0.0000000000e+00 
					-2.9402963315e-04 0.0000000000e+00 0.0000000000e+00 
					-2.9402963315e-04 -2.9402963315e-04 0.0000000000e+00 
					0.0000000000e+00 -2.9402963315e-04 0.0000000000e+00 
					0.0000000000e+00 0.0000000000e+00 6.5039257494e-04 
					-2.9402963315e-04 0.0000000000e+00 6.5039257494e-04 
					-2.9402963315e-04 -2.9402963315e-04 6.5039257494e-04 
					0.0000000000e+00 -2.9402963315e-04 6.5039257494e-04 
				</DataArray>
				<DataArray type="Float32" Name="Velocity" NumberOfComponents="3" ComponentName0="X" ComponentName1="Y" ComponentName2="Z" format="ascii">
					5.9367674419e-04 5.9367674420e-04 3.5904927287e+01 
					-5.9367674419e-04 5.9367674422e-04 3.5904927287e+01 
					-5.9367674422e-04 -5.9367674422e-04 3.5904927287e+01 
					5.9367674422e-04 -5.9367674420e-04 3.5904927287e+01 
					5.9367674420e-04 5.9367674421e-04 -3.5904927287e+01 
					-5.9367674420e-04 5.9367674421e-04 -3.5904927287e+01 
					-5.9367674422e-04 -5.9367674421e-04 -3.5904927287e+01 
					5.9367674422e-04 -5.9367674421e-04 -3.5904927287e+01 
				</DataArray>
				<DataArray type="Float32" Name="Acceleration" NumberOfComponents="3" ComponentName0="X" ComponentName1="Y" ComponentName2="Z" format="ascii">
					-5.1463015065e+01 -5.1463015065e+01 1.0006413227e+03 
					5.1463015065e+01 -5.1463015065e+01 1.0006413227e+03 
					5.1463015065e+01 5.1463015065e+01 1.0006413227e+03 
					-5.1463015065e+01 5.1463015065e+01 1.0006413227e+03 
					-5.1463015065e+01 -5.1463015065e+01 -1.0006413227e+03 
					5.1463015065e+01 -5.1463015065e+01 -1.0006413227e+03 
					5.1463015065e+01 5.1463015065e+01 -1.0006413227e+03 
					-5.1463015065e+01 5.1463015065e+01 -1.0006413227e+03 
				</DataArray>
			</PointData>
			<CellData>
				<DataArray type="Float32" Name="Stress (Cauchy)" NumberOfComponents="9" ComponentName0="XX" ComponentName1="XY" ComponentName2="XZ" ComponentName3="YX" ComponentName4="YY" ComponentName5="YZ" ComponentName6="ZX" ComponentName7="ZY" ComponentName8="ZZ" format="ascii">
					-6.0480787544e+01 -2.4928929530e-12 -2.0954098387e-12
					-2.4928929530e-12 -6.0480787544e+01 -2.0290060058e-12
					-2.0954098387e-12 -2.0290060058e-12 1.4119849869e+03
				</DataArray>
				<DataArray type="Float32" Name="Strain (Logarithmic)" NumberOfComponents="9" ComponentName0="XX" ComponentName1="XY" ComponentName2="XZ" ComponentName3="YX" ComponentName4="YY" ComponentName5="YZ" ComponentName6="ZX" ComponentName7="ZY" ComponentName8="ZZ" format="ascii">
					-6.0605919036e-02 0.0000000000e+00 0.0000000000e+00
					0.0000000000e+00 -6.0605919036e-02 0.0000000000e+00
					0.0000000000e+00 0.0000000000e+00 1.2228711260e-01
				</DataArray>
			</CellData>
		</Piece>
	</UnstructuredGrid>
</VTKFile>
