<?xml version="1.0"?>
<VTKFile type="UnstructuredGrid" version="0.1" byte_order="LittleEndian">
	<UnstructuredGrid>
		<Piece NumberOfPoints="2" NumberOfCells="1">
			<Points>
				<DataArray type="Float32" NumberOfComponents="3" format="ascii">
					2.50000000e-03 2.50000000e-03 0.00000000e+00
					2.50000000e-03 2.50000000e-03 5.00000000e-03
				</DataArray>
			</Points>
			<Cells>
				<DataArray type="Int32" Name="connectivity" format="ascii">
					0	1	

				</DataArray>
				<DataArray type="Int32" Name="offsets" format="ascii">
					2
				</DataArray>
				<DataArray type="UInt8" Name="types" format="ascii">
					3
				</DataArray>
			</Cells>
			<PointData>
				<DataArray type="Float32" Name="Displacement" NumberOfComponents="3" ComponentName0="X" ComponentName1="Y" ComponentName2="Z" format="ascii">
					0.0000000000e+00 0.0000000000e+00 0.0000000000e+00 
					-1.6435082047e-04 0.0000000000e+00 0.0000000000e+00 
				</DataArray>
				<DataArray type="Float32" Name="Velocity" NumberOfComponents="3" ComponentName0="X" ComponentName1="Y" ComponentName2="Z" format="ascii">
					6.9432683535e-03 6.9432683535e-03 1.0982408583e+01 
					-6.9432683535e-03 6.9432683535e-03 1.0982408583e+01 
				</DataArray>
				<DataArray type="Float32" Name="Acceleration" NumberOfComponents="3" ComponentName0="X" ComponentName1="Y" ComponentName2="Z" format="ascii">
					5.9489988047e+01 5.9489988047e+01 6.5996086351e+02 
					-5.9489988047e+01 5.9489988047e+01 6.5996086351e+02 
				</DataArray>
			</PointData>
			<CellData>
				<DataArray type="Float32" Name="Stress (Cauchy)" NumberOfComponents="9" ComponentName0="XX" ComponentName1="XY" ComponentName2="XZ" ComponentName3="YX" ComponentName4="YY" ComponentName5="YZ" ComponentName6="ZX" ComponentName7="ZY" ComponentName8="ZZ" format="ascii">
					7.1856758809e+01 -1.8680732051e-13 3.2277032506e-13
					-1.8680732051e-13 7.1856758809e+01 2.8690695561e-13
					3.2277032506e-13 2.8690695561e-13 8.8197978702e+02
				</DataArray>
				<DataArray type="Float32" Name="Strain (Logarithmic)" NumberOfComponents="9" ComponentName0="XX" ComponentName1="XY" ComponentName2="XZ" ComponentName3="YX" ComponentName4="YY" ComponentName5="YZ" ComponentName6="ZX" ComponentName7="ZY" ComponentName8="ZZ" format="ascii">
					-3.3422525834e-02 0.0000000000e+00 0.0000000000e+00
					0.0000000000e+00 -3.3422525834e-02 0.0000000000e+00
					0.0000000000e+00 0.0000000000e+00 6.7699431003e-02
				</DataArray>
			</CellData>
		</Piece>
	</UnstructuredGrid>
</VTKFile>
