<?xml version="1.0"?>
<VTKFile type="UnstructuredGrid" version="0.1" byte_order="LittleEndian">
	<UnstructuredGrid>
		<Piece NumberOfPoints="8" NumberOfCells="1">
			<Points>
				<DataArray type="Float32" NumberOfComponents="3" format="ascii">
					0.00000000e+00 0.00000000e+00 0.00000000e+00
					5.00000000e-03 0.00000000e+00 0.00000000e+00
					5.00000000e-03 5.00000000e-03 0.00000000e+00
					0.00000000e+00 5.00000000e-03 0.00000000e+00
					0.00000000e+00 0.00000000e+00 5.00000000e-03
					5.00000000e-03 0.00000000e+00 5.00000000e-03
					5.00000000e-03 5.00000000e-03 5.00000000e-03
					0.00000000e+00 5.00000000e-03 5.00000000e-03
				</DataArray>
			</Points>
			<Cells>
				<DataArray type="Int32" Name="connectivity" format="ascii">
					0	1	2	3	4	5	6	7	

				</DataArray>
				<DataArray type="Int32" Name="offsets" format="ascii">
					8
				</DataArray>
				<DataArray type="UInt8" Name="types" format="ascii">
					12
				</DataArray>
			</Cells>
			<PointData>
				<DataArray type="Float32" Name="Displacement" NumberOfComponents="3" ComponentName0="X" ComponentName1="Y" ComponentName2="Z" format="ascii">
					0.0000000000e+00 0.0000000000e+00 0.0000000000e+00 
					-2.4753030625e-05 0.0000000000e+00 0.0000000000e+00 
					-2.4753030625e-05 -2.4753030625e-05 0.0000000000e+00 
					0.0000000000e+00 -2.4753030625e-05 0.0000000000e+00 
					0.0000000000e+00 0.0000000000e+00 5.0258875421e-05 
					-2.4753030625e-05 0.0000000000e+00 5.0258875421e-05 
					-2.4753030625e-05 -2.4753030625e-05 5.0258875421e-05 
					0.0000000000e+00 -2.4753030625e-05 5.0258875421e-05 
				</DataArray>
				<DataArray type="Float32" Name="Velocity" NumberOfComponents="3" ComponentName0="X" ComponentName1="Y" ComponentName2="Z" format="ascii">
					9.8047036764e-03 9.8047036764e-03 2.4893646030e-01 
					-9.8047036764e-03 9.8047036764e-03 2.4893646030e-01 
					-9.8047036764e-03 -9.8047036764e-03 2.4893646030e-01 
					9.8047036764e-03 -9.8047036764e-03 2.4893646030e-01 
					9.8047036764e-03 9.8047036764e-03 -2.4893646030e-01 
					-9.8047036764e-03 9.8047036764e-03 -2.4893646030e-01 
					-9.8047036764e-03 -9.8047036764e-03 -2.4893646030e-01 
					9.8047036764e-03 -9.8047036764e-03 -2.4893646030e-01 
				</DataArray>
				<DataArray type="Float32" Name="Acceleration" NumberOfComponents="3" ComponentName0="X" ComponentName1="Y" ComponentName2="Z" format="ascii">
					-7.7084257925e+00 -7.7084257924e+00 8.7230435948e+01 
					7.7084257925e+00 -7.7084257925e+00 8.7230435948e+01 
					7.7084257924e+00 7.7084257925e+00 8.7230435948e+01 
					-7.7084257924e+00 7.7084257924e+00 8.7230435948e+01 
					-7.7084257925e+00 -7.7084257924e+00 -8.7230435948e+01 
					7.7084257925e+00 -7.7084257925e+00 -8.7230435948e+01 
					7.7084257924e+00 7.7084257925e+00 -8.7230435948e+01 
					-7.7084257924e+00 7.7084257924e+00 -8.7230435948e+01 
				</DataArray>
			</PointData>
			<CellData>
				<DataArray type="Float32" Name="Stress (Cauchy)" NumberOfComponents="9" ComponentName0="XX" ComponentName1="XY" ComponentName2="XZ" ComponentName3="YX" ComponentName4="YY" ComponentName5="YZ" ComponentName6="ZX" ComponentName7="ZY" ComponentName8="ZZ" format="ascii">
					-9.5871038810e+00 2.0222381632e-13 6.8858126111e-14
					2.0222381632e-13 -9.5871038810e+00 6.6243260563e-14
					6.8858126111e-14 6.6243260563e-14 1.1012572409e+02
				</DataArray>
				<DataArray type="Float32" Name="Strain (Logarithmic)" NumberOfComponents="9" ComponentName0="XX" ComponentName1="XY" ComponentName2="XZ" ComponentName3="YX" ComponentName4="YY" ComponentName5="YZ" ComponentName6="ZX" ComponentName7="ZY" ComponentName8="ZZ" format="ascii">
					-4.9629009703e-03 0.0000000000e+00 0.0000000000e+00
					0.0000000000e+00 -4.9629009703e-03 0.0000000000e+00
					0.0000000000e+00 0.0000000000e+00 1.0001591999e-02
				</DataArray>
			</CellData>
		</Piece>
	</UnstructuredGrid>
</VTKFile>
