<?xml version="1.0"?>
<VTKFile type="UnstructuredGrid" version="0.1" byte_order="LittleEndian">
	<UnstructuredGrid>
		<Piece NumberOfPoints="8" NumberOfCells="1">
			<Points>
				<DataArray type="Float32" NumberOfComponents="3" format="ascii">
					0.00000000e+00 0.00000000e+00 0.00000000e+00
					5.00000000e-03 0.00000000e+00 0.00000000e+00
					5.00000000e-03 5.00000000e-03 0.00000000e+00
					0.00000000e+00 5.00000000e-03 0.00000000e+00
					0.00000000e+00 0.00000000e+00 5.00000000e-03
					5.00000000e-03 0.00000000e+00 5.00000000e-03
					5.00000000e-03 5.00000000e-03 5.00000000e-03
					0.00000000e+00 5.00000000e-03 5.00000000e-03
				</DataArray>
			</Points>
			<Cells>
				<DataArray type="Int32" Name="connectivity" format="ascii">
					0	1	2	3	4	5	6	7	

				</DataArray>
				<DataArray type="Int32" Name="offsets" format="ascii">
					8
				</DataArray>
				<DataArray type="UInt8" Name="types" format="ascii">
					12
				</DataArray>
			</Cells>
			<PointData>
				<DataArray type="Float32" Name="Displacement" NumberOfComponents="3" ComponentName0="X" ComponentName1="Y" ComponentName2="Z" format="ascii">
					0.0000000000e+00 0.0000000000e+00 0.0000000000e+00 
					-4.8782382757e-05 0.0000000000e+00 0.0000000000e+00 
					-4.8782382757e-05 -4.8782382757e-05 0.0000000000e+00 
					0.0000000000e+00 -4.8782382757e-05 0.0000000000e+00 
					0.0000000000e+00 0.0000000000e+00 1.0027101178e-04 
					-4.8782382757e-05 0.0000000000e+00 1.0027101178e-04 
					-4.8782382757e-05 -4.8782382757e-05 1.0027101178e-04 
					0.0000000000e+00 -4.8782382757e-05 1.0027101178e-04 
				</DataArray>
				<DataArray type="Float32" Name="Velocity" NumberOfComponents="3" ComponentName0="X" ComponentName1="Y" ComponentName2="Z" format="ascii">
					-2.1160816346e-05 -2.1160816352e-05 9.4330563779e-01 
					2.1160816345e-05 -2.1160816346e-05 9.4330563779e-01 
					2.1160816354e-05 2.1160816347e-05 9.4330563779e-01 
					-2.1160816354e-05 2.1160816352e-05 9.4330563779e-01 
					-2.1160816345e-05 -2.1160816355e-05 -9.4330563779e-01 
					2.1160816345e-05 -2.1160816340e-05 -9.4330563779e-01 
					2.1160816350e-05 2.1160816339e-05 -9.4330563779e-01 
					-2.1160816350e-05 2.1160816355e-05 -9.4330563779e-01 
				</DataArray>
				<DataArray type="Float32" Name="Acceleration" NumberOfComponents="3" ComponentName0="X" ComponentName1="Y" ComponentName2="Z" format="ascii">
					1.5937366990e+01 1.5937366990e+01 2.0160098871e+02 
					-1.5937366990e+01 1.5937366990e+01 2.0160098871e+02 
					-1.5937366990e+01 -1.5937366990e+01 2.0160098871e+02 
					1.5937366990e+01 -1.5937366990e+01 2.0160098871e+02 
					1.5937366990e+01 1.5937366990e+01 -2.0160098871e+02 
					-1.5937366990e+01 1.5937366990e+01 -2.0160098871e+02 
					-1.5937366990e+01 -1.5937366990e+01 -2.0160098871e+02 
					1.5937366990e+01 -1.5937366990e+01 -2.0160098871e+02 
				</DataArray>
			</PointData>
			<CellData>
				<DataArray type="Float32" Name="Stress (Cauchy)" NumberOfComponents="9" ComponentName0="XX" ComponentName1="XY" ComponentName2="XZ" ComponentName3="YX" ComponentName4="YY" ComponentName5="YZ" ComponentName6="ZX" ComponentName7="ZY" ComponentName8="ZZ" format="ascii">
					1.9722471005e+01 1.9268972470e-14 9.6330738383e-14
					1.9268972470e-14 1.9722471005e+01 8.5821930560e-14
					9.6330738383e-14 8.5821930560e-14 2.5699143499e+02
				</DataArray>
				<DataArray type="Float32" Name="Strain (Logarithmic)" NumberOfComponents="9" ComponentName0="XX" ComponentName1="XY" ComponentName2="XZ" ComponentName3="YX" ComponentName4="YY" ComponentName5="YZ" ComponentName6="ZX" ComponentName7="ZY" ComponentName8="ZZ" format="ascii">
					-9.8043828210e-03 0.0000000000e+00 0.0000000000e+00
					0.0000000000e+00 -9.8043828210e-03 0.0000000000e+00
					0.0000000000e+00 0.0000000000e+00 1.9855765449e-02
				</DataArray>
			</CellData>
		</Piece>
	</UnstructuredGrid>
</VTKFile>
